Al                                      
   1.00000000000000     
    11.4551298552220704    0.0000000000000000    0.0000000000000000
     0.0000000000000000   17.1826947828331065    0.0000000000000000
     0.0000000000000000    0.0000000000000000   58.2249999999999943
   Al
   240
Direct
  0.1125804265356507  0.0728264468809314  0.3453124227934410
  0.3613048307468816  0.0809445679466805  0.3398819987758799
  0.6150505548601757  0.0815947336535174  0.3465165838047071
  0.8681060229119737  0.0848768512405016  0.3412010631634033
  0.1097001533700279  0.2516235609217219  0.3431953045736336
  0.3726491647946162  0.2519125775158670  0.3449080253538099
  0.6132902254590533  0.2496582951504038  0.3431062673904819
  0.8716536797767418  0.2511758790150296  0.3454047021359301
  0.1168245708452886  0.4222405811110974  0.3419966143588340
  0.3697723776719428  0.4167266881915239  0.3425627903736626
  0.6129300168391154  0.4124016359877274  0.3430059059056632
  0.8603107866332920  0.4144819490933358  0.3427120145154845
  0.1142685208705387  0.5883681813969091  0.3421312148163409
  0.3531287840823580  0.5810681344414732  0.3418987333554000
  0.6070087403556670  0.5850134235137645  0.3415481124287325
  0.8576428385678696  0.5891910156356417  0.3433685017011570
  0.1133751947939530  0.7498687394694983  0.3435070774184155
  0.3571651549088415  0.7396451269869218  0.3433877365077649
  0.6181616609201299  0.7462795959102237  0.3435291801127747
  0.8565586052562040  0.7532030284501019  0.3424276297182303
  0.1109247304672394  0.9096995696712611  0.3428639732328804
  0.3666115823926503  0.9093203467935496  0.3444291417526841
  0.6156433793813747  0.9125476715695626  0.3432167570244431
  0.8573345339882366  0.9215517643950264  0.3427105469521194
  0.9991157653740927  0.9995988612302895  0.3799805479438234
  0.2503629724169727  0.9982706399921284  0.3789843572459901
  0.4915543711902188  0.9989396633108925  0.3786982281470799
  0.7472851259240372  0.0018791094442889  0.3797004998053737
  0.9926501103965037  0.1628463062664665  0.3790473585264564
  0.2480681659631543  0.1697941428472660  0.3766462678063789
  0.4927347542752472  0.1667680365447310  0.3789224400716691
  0.7476875571635375  0.1674998350210117  0.3785650489014358
  0.9994984294074740  0.3281819147759464  0.3799553862187750
  0.2486910148497685  0.3378210440714753  0.3762564458099575
  0.4983381403875597  0.3403858085769826  0.3801487932040430
  0.7420272255098368  0.3348993818802128  0.3788669688781141
  0.9958228252181627  0.4911038983134759  0.3792848612741082
  0.2529728244731331  0.4996141436319377  0.3772823609323623
  0.4854443271709030  0.5014179737981905  0.3761490887734595
  0.7444109341529668  0.5022354036238070  0.3778750530482853
  0.9909891620567777  0.6622848365892295  0.3784441280304307
  0.2450844969178405  0.6642797639720115  0.3791459727830713
  0.4909871838735285  0.6624742764675986  0.3767524913963811
  0.7410998578907524  0.6685029127311424  0.3780558881659530
  0.9891556902626988  0.8309504309911588  0.3795442472703243
  0.2437297067959889  0.8320365136531720  0.3787392420159748
  0.4913018000805209  0.8262451703922054  0.3781829225125648
  0.7323814452423747  0.8352057726552147  0.3771396612174485
  0.1113754336078046  0.0827482269199677  0.4126384821964280
  0.3658071106213399  0.0802699951775878  0.4125438556348158
  0.6121401596350040  0.0880566400163971  0.4122367420398874
  0.8697211023733900  0.0821744506832900  0.4149053069461388
  0.1218232243703525  0.2454459967889946  0.4122624665221224
  0.3707354343894593  0.2547031578761860  0.4117705921105781
  0.6225371716055506  0.2523729193386046  0.4115795792729884
  0.8608752516397473  0.2496895114200512  0.4123045049094145
  0.1230349432713780  0.4116942255660234  0.4117556185071862
  0.3602795330508997  0.4157015766026078  0.4128194467058250
  0.6162453985199505  0.4215163530921018  0.4116886021261976
  0.8704713376799234  0.4159327871684226  0.4117635554976431
  0.1152887666306199  0.5750582451426141  0.4124495757957760
  0.3741096576178364  0.5809945564240238  0.4128634356161740
  0.6199204581423743  0.5826875823829027  0.4112046039966799
  0.8708319534071549  0.5805597058874525  0.4122754948544767
  0.1178264479320745  0.7506647266332962  0.4127222387503764
  0.3713584640524985  0.7460771619939095  0.4145627253034831
  0.6204836190592005  0.7474975966701649  0.4133043727572954
  0.8721851361638429  0.7412383003217755  0.4114407176331554
  0.1220677701922881  0.9114562424050874  0.4113515249598905
  0.3796755125117954  0.9117321495963608  0.4132608104038269
  0.6180664176525426  0.9172067049316084  0.4125036482118460
  0.8704252965789436  0.9102717693908744  0.4148373241454024
  0.0011050625762792  0.9988036769551343  0.4502081670333240
  0.2409329137784439  0.0002132704079898  0.4447885958658659
  0.4945976893963717  0.0001322321204213  0.4475515282053308
  0.7387476999286520  0.0030910465475174  0.4485032702952054
  0.9953841051396495  0.1683463915912640  0.4468263252555289
  0.2516689831193872  0.1765475134933965  0.4472943072373212
  0.5062306123680642  0.1666982092298355  0.4488184744359174
  0.7471375682952015  0.1726244648484538  0.4463465553574153
  0.9952800693152426  0.3362567222982449  0.4458769580315334
  0.2425804737877471  0.3383074749898256  0.4475296122390233
  0.4935350901945910  0.3315291105747704  0.4470059798271677
  0.7404358493065928  0.3368263153860198  0.4463947373770054
  0.9942188823518023  0.5023915655344524  0.4464741011798310
  0.2509439296614389  0.4997890986384377  0.4456147493374729
  0.5006630829151604  0.4995318114755136  0.4453298403700430
  0.7489891963974458  0.5042735787180490  0.4474206240377185
  0.0006992370933858  0.6656539530910734  0.4463824572416186
  0.2504632451777837  0.6655606871669164  0.4479001130291778
  0.5031766207663253  0.6629692154778226  0.4474879424914704
  0.7622955655383024  0.6667060605908404  0.4479656053233896
  0.9942437507550892  0.8309752401557802  0.4475651491428962
  0.2462150855164964  0.8316332470229426  0.4472698497369834
  0.4962674221723162  0.8299097049442494  0.4481131565182466
  0.7539071185529806  0.8344614255458325  0.4463722446913891
  0.1228918442031173  0.0919297609791627  0.4846987474870161
  0.3750968767316394  0.0897031233251582  0.4824112620577452
  0.6330555651670338  0.0781627578094088  0.4840176105865694
  0.8679565684320707  0.0906072090354471  0.4819768455255442
  0.1342679123223149  0.2553571080551009  0.4825851440282278
  0.3727406819793373  0.2490849609085970  0.4831899349779007
  0.6263981731077735  0.2516096429011085  0.4839810532853122
  0.8632370981044488  0.2610967641427564  0.4839847105896311
  0.1246344516225690  0.4129721477380457  0.4825574496086844
  0.3730307189068043  0.4235872001688961  0.4814218060800144
  0.6303973146278139  0.4201492828685573  0.4811133928117073
  0.8774154307502755  0.4199734225813216  0.4826904013081474
  0.1186780216923182  0.5742929735642122  0.4831782216967966
  0.3735085910732252  0.5853482040028979  0.4817690256377603
  0.6108972828663610  0.5889952507046914  0.4813471174181672
  0.8639376401275456  0.5891649908849530  0.4847748476510816
  0.1278643572391971  0.7436872641492300  0.4810931634604358
  0.3731905216770741  0.7514008251637705  0.4818756150299350
  0.6272746509100386  0.7508162591773342  0.4823554668603265
  0.8770073528227087  0.7570576155229674  0.4839359325355659
  0.1368035936409271  0.9171225042232152  0.4827204646749976
  0.3680940405317799  0.9214825105908346  0.4836271133518508
  0.6219479419478304  0.9142499203643411  0.4825187600319225
  0.8717683541205332  0.9162758244749014  0.4826616856285071
  0.0010595207884947  0.0001556196098917  0.5168940134713154
  0.2443409630538440  0.9976261992848166  0.5182258939058926
  0.4942537665334967  0.0018617721527576  0.5166354628874430
  0.7411796428933073  0.9952174926047306  0.5167398895675959
  0.9829280043236608  0.1646113962981772  0.5153554372821176
  0.2373698422807422  0.1721575103128075  0.5176252193351374
  0.4981377067907857  0.1631588563677013  0.5159299362333769
  0.7334294341604632  0.1713935003437186  0.5185203119356032
  0.9884437420514729  0.3346885664377268  0.5190270114444147
  0.2434482252932710  0.3370339350516787  0.5180845050684013
  0.4903403332476941  0.3336897273549155  0.5183045662838879
  0.7410371930679958  0.3366891791875588  0.5189863362613920
  0.9821357194449192  0.4976284647701590  0.5176166898122077
  0.2353761514800041  0.5023556378167697  0.5185427685092634
  0.4942319193912752  0.4966525393191930  0.5182704015184285
  0.7309019536739285  0.4990094594519974  0.5168084421345824
  0.9935030260911546  0.6656349456149755  0.5174863779014203
  0.2388238335256645  0.6642758210630149  0.5150541519016514
  0.4915875448222948  0.6642362597524709  0.5155843706301937
  0.7292643314636607  0.6642438472257410  0.5178397158466694
  0.9981253556567538  0.8325631157012268  0.5168295710158191
  0.2419859605234365  0.8271971322987426  0.5168435047046245
  0.4885509808295936  0.8372263070450643  0.5172576293401150
  0.7415432682521299  0.8328474861073616  0.5165949259021900
  0.1069774676828672  0.0807237261230469  0.5517633380612139
  0.3610155796781171  0.0848931696370201  0.5514569673128733
  0.6127450589756762  0.0826687413067546  0.5512923347045913
  0.8703612444584792  0.0856229530923969  0.5511572237104403
  0.1151023203630359  0.2467845350765430  0.5512812756118421
  0.3620282923673130  0.2457705422448697  0.5515440065878536
  0.6238283143334726  0.2506594708771104  0.5536892070505459
  0.8582187780696842  0.2553667231585237  0.5530836983146159
  0.1224623091481050  0.4109755219787843  0.5530020205409940
  0.3659059242765039  0.4198300985818406  0.5524574210276043
  0.6225801996442968  0.4214172409879851  0.5521378573124096
  0.8707139998889630  0.4187980912485685  0.5538034319009384
  0.1149045403656999  0.5809347246748970  0.5543192416186997
  0.3731590341272408  0.5791047416381119  0.5506229806442917
  0.6317949806884400  0.5843661591827356  0.5528323938425004
  0.8705889124163093  0.5782334333738106  0.5532929586210429
  0.1223585665781286  0.7485071220034598  0.5505551026385405
  0.3723139190455740  0.7496759560316661  0.5497600688940096
  0.6168531920304261  0.7516007476723772  0.5518199213115054
  0.8618532870261930  0.7438132547358833  0.5508116867459520
  0.1173987147825031  0.9179488037770369  0.5516563107795704
  0.3677719485441742  0.9157065753067428  0.5516031910914094
  0.6168805965270820  0.9182650074439849  0.5520022842548968
  0.8729166831117823  0.9196990267007621  0.5490373683978618
  0.9890525255564953  0.9977966720693416  0.5849960725293428
  0.2462679420758107  0.9930938452817912  0.5858757719374523
  0.4961188906829932  0.9967220107216122  0.5878794133495475
  0.7541253494794660  0.9920579150842457  0.5835081936121753
  0.9914673790245061  0.1644756389627631  0.5859993487131376
  0.2444363389308890  0.1591751604027252  0.5878117733399648
  0.4972037891639758  0.1645339030099606  0.5853601098223251
  0.7435889550514929  0.1613976760274980  0.5863882576090376
  0.9905455995378460  0.3382971950857794  0.5871734636153505
  0.2532408671604145  0.3375455229904034  0.5854959971073370
  0.4983528455712616  0.3323662132099869  0.5855863087956052
  0.7494145341211720  0.3324064005246399  0.5869097797390310
  0.9903902414316192  0.4986793299894714  0.5898777780809326
  0.2425432034893902  0.4992386575268668  0.5888377762348540
  0.4964065866336469  0.5043454920596986  0.5855190545185991
  0.7376802365091564  0.4966830622060030  0.5858628724505905
  0.9838395265409403  0.6682187818164138  0.5890269468848075
  0.2537870778776607  0.6596253546131265  0.5851201453640869
  0.5007589889217599  0.6639710018524667  0.5879144933913807
  0.7427576447642252  0.6648019839948915  0.5878697105208133
  0.0012016364556615  0.8267203054683492  0.5851732216836893
  0.2541588262858738  0.8255766478356676  0.5864941998816420
  0.4864709275224257  0.8256935110765724  0.5860186365426117
  0.7483216867999687  0.8336819549039376  0.5872288793000848
  0.1184182644289891  0.0780043450218955  0.6211076839314558
  0.3653817077141071  0.0738507049954862  0.6210545155665343
  0.6124718266575613  0.0849942276673730  0.6211282553570214
  0.8659936575651486  0.0845855487032736  0.6187860099636140
  0.1212271014422086  0.2578550005914551  0.6208242259998187
  0.3660906793083711  0.2444290058318046  0.6217841798327157
  0.6140173815848513  0.2586765035730565  0.6222409475841886
  0.8736181986581570  0.2478722358860281  0.6201602563140227
  0.1216937553882005  0.4149320922340678  0.6216831957105313
  0.3757202292366699  0.4083727452495012  0.6211635199608949
  0.6198714125819720  0.4135946848141714  0.6220370440605194
  0.8653734746003892  0.4169670595822836  0.6216574767652929
  0.1293532984593071  0.5864893310499255  0.6206976019972217
  0.3706582172396580  0.5732809764379354  0.6244333522352505
  0.6180584371082247  0.5762924851024280  0.6221915320850897
  0.8633467324687416  0.5866094452546449  0.6235800794717079
  0.1178803515222953  0.7505913087874561  0.6207209541081582
  0.3711957205797489  0.7410298093206293  0.6228043853385756
  0.6266523856435740  0.7415405937691659  0.6214175375909576
  0.8763491820279512  0.7463369837852838  0.6219575567409308
  0.1146723085067549  0.9101409396804883  0.6200906323819027
  0.3655646994030093  0.9047872468601383  0.6209267410181454
  0.6158577853410208  0.9160493477350471  0.6197392029330118
  0.8623479815302559  0.9167932227149649  0.6202261018962503
  0.9983732942721417  0.9967494977579250  0.6565701614592712
  0.2439095443262431  0.9942244600729495  0.6563481039722419
  0.4943577168060216  0.9982147361635541  0.6539537497100980
  0.7359504803885528  0.0034254552316426  0.6556142201944724
  0.9918170681047158  0.1647051080971380  0.6556513058802196
  0.2459398628842351  0.1583488794673400  0.6531958165152574
  0.4930641355668897  0.1615164820210993  0.6533826711165389
  0.7443770011865922  0.1628494935918567  0.6525598117586782
  0.9985338180038852  0.3270144286982273  0.6568080490872177
  0.2367905942275996  0.3312115121469219  0.6586314223005019
  0.4954818440554334  0.3271224727981306  0.6579971384731635
  0.7511363267990205  0.3297146351911380  0.6550417947015603
  0.0004002867438757  0.5041361482720745  0.6546425119546271
  0.2361041110658064  0.4952883727503732  0.6587390627728666
  0.4973974256940039  0.4927533720922881  0.6565339025077250
  0.7534711736396815  0.4970287487451657  0.6568282488815598
  0.0058546511501589  0.6698845867224748  0.6548272491875125
  0.2417244878304317  0.6693124474787382  0.6556620148127550
  0.4884915716360609  0.6638691647895385  0.6568258533211377
  0.7440983801243561  0.6678741752564648  0.6575717351197170
  0.9874534450704289  0.8318437405435191  0.6561610633053547
  0.2497928430723775  0.8265521519147256  0.6586193697519462
  0.5012600498820206  0.8288094362723726  0.6531407322892093
  0.7488155386492465  0.8322683618137816  0.6576299703480117
 
  0.00000000E+00  0.00000000E+00  0.00000000E+00
  0.00000000E+00  0.00000000E+00  0.00000000E+00
  0.00000000E+00  0.00000000E+00  0.00000000E+00
  0.00000000E+00  0.00000000E+00  0.00000000E+00
  0.00000000E+00  0.00000000E+00  0.00000000E+00
  0.00000000E+00  0.00000000E+00  0.00000000E+00
  0.00000000E+00  0.00000000E+00  0.00000000E+00
  0.00000000E+00  0.00000000E+00  0.00000000E+00
  0.00000000E+00  0.00000000E+00  0.00000000E+00
  0.00000000E+00  0.00000000E+00  0.00000000E+00
  0.00000000E+00  0.00000000E+00  0.00000000E+00
  0.00000000E+00  0.00000000E+00  0.00000000E+00
  0.00000000E+00  0.00000000E+00  0.00000000E+00
  0.00000000E+00  0.00000000E+00  0.00000000E+00
  0.00000000E+00  0.00000000E+00  0.00000000E+00
  0.00000000E+00  0.00000000E+00  0.00000000E+00
  0.00000000E+00  0.00000000E+00  0.00000000E+00
  0.00000000E+00  0.00000000E+00  0.00000000E+00
  0.00000000E+00  0.00000000E+00  0.00000000E+00
  0.00000000E+00  0.00000000E+00  0.00000000E+00
  0.00000000E+00  0.00000000E+00  0.00000000E+00
  0.00000000E+00  0.00000000E+00  0.00000000E+00
  0.00000000E+00  0.00000000E+00  0.00000000E+00
  0.00000000E+00  0.00000000E+00  0.00000000E+00
  0.00000000E+00  0.00000000E+00  0.00000000E+00
  0.00000000E+00  0.00000000E+00  0.00000000E+00
  0.00000000E+00  0.00000000E+00  0.00000000E+00
  0.00000000E+00  0.00000000E+00  0.00000000E+00
  0.00000000E+00  0.00000000E+00  0.00000000E+00
  0.00000000E+00  0.00000000E+00  0.00000000E+00
  0.00000000E+00  0.00000000E+00  0.00000000E+00
  0.00000000E+00  0.00000000E+00  0.00000000E+00
  0.00000000E+00  0.00000000E+00  0.00000000E+00
  0.00000000E+00  0.00000000E+00  0.00000000E+00
  0.00000000E+00  0.00000000E+00  0.00000000E+00
  0.00000000E+00  0.00000000E+00  0.00000000E+00
  0.00000000E+00  0.00000000E+00  0.00000000E+00
  0.00000000E+00  0.00000000E+00  0.00000000E+00
  0.00000000E+00  0.00000000E+00  0.00000000E+00
  0.00000000E+00  0.00000000E+00  0.00000000E+00
  0.00000000E+00  0.00000000E+00  0.00000000E+00
  0.00000000E+00  0.00000000E+00  0.00000000E+00
  0.00000000E+00  0.00000000E+00  0.00000000E+00
  0.00000000E+00  0.00000000E+00  0.00000000E+00
  0.00000000E+00  0.00000000E+00  0.00000000E+00
  0.00000000E+00  0.00000000E+00  0.00000000E+00
  0.00000000E+00  0.00000000E+00  0.00000000E+00
  0.00000000E+00  0.00000000E+00  0.00000000E+00
  0.00000000E+00  0.00000000E+00  0.00000000E+00
  0.00000000E+00  0.00000000E+00  0.00000000E+00
  0.00000000E+00  0.00000000E+00  0.00000000E+00
  0.00000000E+00  0.00000000E+00  0.00000000E+00
  0.00000000E+00  0.00000000E+00  0.00000000E+00
  0.00000000E+00  0.00000000E+00  0.00000000E+00
  0.00000000E+00  0.00000000E+00  0.00000000E+00
  0.00000000E+00  0.00000000E+00  0.00000000E+00
  0.00000000E+00  0.00000000E+00  0.00000000E+00
  0.00000000E+00  0.00000000E+00  0.00000000E+00
  0.00000000E+00  0.00000000E+00  0.00000000E+00
  0.00000000E+00  0.00000000E+00  0.00000000E+00
  0.00000000E+00  0.00000000E+00  0.00000000E+00
  0.00000000E+00  0.00000000E+00  0.00000000E+00
  0.00000000E+00  0.00000000E+00  0.00000000E+00
  0.00000000E+00  0.00000000E+00  0.00000000E+00
  0.00000000E+00  0.00000000E+00  0.00000000E+00
  0.00000000E+00  0.00000000E+00  0.00000000E+00
  0.00000000E+00  0.00000000E+00  0.00000000E+00
  0.00000000E+00  0.00000000E+00  0.00000000E+00
  0.00000000E+00  0.00000000E+00  0.00000000E+00
  0.00000000E+00  0.00000000E+00  0.00000000E+00
  0.00000000E+00  0.00000000E+00  0.00000000E+00
  0.00000000E+00  0.00000000E+00  0.00000000E+00
  0.00000000E+00  0.00000000E+00  0.00000000E+00
  0.00000000E+00  0.00000000E+00  0.00000000E+00
  0.00000000E+00  0.00000000E+00  0.00000000E+00
  0.00000000E+00  0.00000000E+00  0.00000000E+00
  0.00000000E+00  0.00000000E+00  0.00000000E+00
  0.00000000E+00  0.00000000E+00  0.00000000E+00
  0.00000000E+00  0.00000000E+00  0.00000000E+00
  0.00000000E+00  0.00000000E+00  0.00000000E+00
  0.00000000E+00  0.00000000E+00  0.00000000E+00
  0.00000000E+00  0.00000000E+00  0.00000000E+00
  0.00000000E+00  0.00000000E+00  0.00000000E+00
  0.00000000E+00  0.00000000E+00  0.00000000E+00
  0.00000000E+00  0.00000000E+00  0.00000000E+00
  0.00000000E+00  0.00000000E+00  0.00000000E+00
  0.00000000E+00  0.00000000E+00  0.00000000E+00
  0.00000000E+00  0.00000000E+00  0.00000000E+00
  0.00000000E+00  0.00000000E+00  0.00000000E+00
  0.00000000E+00  0.00000000E+00  0.00000000E+00
  0.00000000E+00  0.00000000E+00  0.00000000E+00
  0.00000000E+00  0.00000000E+00  0.00000000E+00
  0.00000000E+00  0.00000000E+00  0.00000000E+00
  0.00000000E+00  0.00000000E+00  0.00000000E+00
  0.00000000E+00  0.00000000E+00  0.00000000E+00
  0.00000000E+00  0.00000000E+00  0.00000000E+00
  0.00000000E+00  0.00000000E+00  0.00000000E+00
  0.00000000E+00  0.00000000E+00  0.00000000E+00
  0.00000000E+00  0.00000000E+00  0.00000000E+00
  0.00000000E+00  0.00000000E+00  0.00000000E+00
  0.00000000E+00  0.00000000E+00  0.00000000E+00
  0.00000000E+00  0.00000000E+00  0.00000000E+00
  0.00000000E+00  0.00000000E+00  0.00000000E+00
  0.00000000E+00  0.00000000E+00  0.00000000E+00
  0.00000000E+00  0.00000000E+00  0.00000000E+00
  0.00000000E+00  0.00000000E+00  0.00000000E+00
  0.00000000E+00  0.00000000E+00  0.00000000E+00
  0.00000000E+00  0.00000000E+00  0.00000000E+00
  0.00000000E+00  0.00000000E+00  0.00000000E+00
  0.00000000E+00  0.00000000E+00  0.00000000E+00
  0.00000000E+00  0.00000000E+00  0.00000000E+00
  0.00000000E+00  0.00000000E+00  0.00000000E+00
  0.00000000E+00  0.00000000E+00  0.00000000E+00
  0.00000000E+00  0.00000000E+00  0.00000000E+00
  0.00000000E+00  0.00000000E+00  0.00000000E+00
  0.00000000E+00  0.00000000E+00  0.00000000E+00
  0.00000000E+00  0.00000000E+00  0.00000000E+00
  0.00000000E+00  0.00000000E+00  0.00000000E+00
  0.00000000E+00  0.00000000E+00  0.00000000E+00
  0.00000000E+00  0.00000000E+00  0.00000000E+00
  0.00000000E+00  0.00000000E+00  0.00000000E+00
  0.00000000E+00  0.00000000E+00  0.00000000E+00
  0.00000000E+00  0.00000000E+00  0.00000000E+00
  0.00000000E+00  0.00000000E+00  0.00000000E+00
  0.00000000E+00  0.00000000E+00  0.00000000E+00
  0.00000000E+00  0.00000000E+00  0.00000000E+00
  0.00000000E+00  0.00000000E+00  0.00000000E+00
  0.00000000E+00  0.00000000E+00  0.00000000E+00
  0.00000000E+00  0.00000000E+00  0.00000000E+00
  0.00000000E+00  0.00000000E+00  0.00000000E+00
  0.00000000E+00  0.00000000E+00  0.00000000E+00
  0.00000000E+00  0.00000000E+00  0.00000000E+00
  0.00000000E+00  0.00000000E+00  0.00000000E+00
  0.00000000E+00  0.00000000E+00  0.00000000E+00
  0.00000000E+00  0.00000000E+00  0.00000000E+00
  0.00000000E+00  0.00000000E+00  0.00000000E+00
  0.00000000E+00  0.00000000E+00  0.00000000E+00
  0.00000000E+00  0.00000000E+00  0.00000000E+00
  0.00000000E+00  0.00000000E+00  0.00000000E+00
  0.00000000E+00  0.00000000E+00  0.00000000E+00
  0.00000000E+00  0.00000000E+00  0.00000000E+00
  0.00000000E+00  0.00000000E+00  0.00000000E+00
  0.00000000E+00  0.00000000E+00  0.00000000E+00
  0.00000000E+00  0.00000000E+00  0.00000000E+00
  0.00000000E+00  0.00000000E+00  0.00000000E+00
  0.00000000E+00  0.00000000E+00  0.00000000E+00
  0.00000000E+00  0.00000000E+00  0.00000000E+00
  0.00000000E+00  0.00000000E+00  0.00000000E+00
  0.00000000E+00  0.00000000E+00  0.00000000E+00
  0.00000000E+00  0.00000000E+00  0.00000000E+00
  0.00000000E+00  0.00000000E+00  0.00000000E+00
  0.00000000E+00  0.00000000E+00  0.00000000E+00
  0.00000000E+00  0.00000000E+00  0.00000000E+00
  0.00000000E+00  0.00000000E+00  0.00000000E+00
  0.00000000E+00  0.00000000E+00  0.00000000E+00
  0.00000000E+00  0.00000000E+00  0.00000000E+00
  0.00000000E+00  0.00000000E+00  0.00000000E+00
  0.00000000E+00  0.00000000E+00  0.00000000E+00
  0.00000000E+00  0.00000000E+00  0.00000000E+00
  0.00000000E+00  0.00000000E+00  0.00000000E+00
  0.00000000E+00  0.00000000E+00  0.00000000E+00
  0.00000000E+00  0.00000000E+00  0.00000000E+00
  0.00000000E+00  0.00000000E+00  0.00000000E+00
  0.00000000E+00  0.00000000E+00  0.00000000E+00
  0.00000000E+00  0.00000000E+00  0.00000000E+00
  0.00000000E+00  0.00000000E+00  0.00000000E+00
  0.00000000E+00  0.00000000E+00  0.00000000E+00
  0.00000000E+00  0.00000000E+00  0.00000000E+00
  0.00000000E+00  0.00000000E+00  0.00000000E+00
  0.00000000E+00  0.00000000E+00  0.00000000E+00
  0.00000000E+00  0.00000000E+00  0.00000000E+00
  0.00000000E+00  0.00000000E+00  0.00000000E+00
  0.00000000E+00  0.00000000E+00  0.00000000E+00
  0.00000000E+00  0.00000000E+00  0.00000000E+00
  0.00000000E+00  0.00000000E+00  0.00000000E+00
  0.00000000E+00  0.00000000E+00  0.00000000E+00
  0.00000000E+00  0.00000000E+00  0.00000000E+00
  0.00000000E+00  0.00000000E+00  0.00000000E+00
  0.00000000E+00  0.00000000E+00  0.00000000E+00
  0.00000000E+00  0.00000000E+00  0.00000000E+00
  0.00000000E+00  0.00000000E+00  0.00000000E+00
  0.00000000E+00  0.00000000E+00  0.00000000E+00
  0.00000000E+00  0.00000000E+00  0.00000000E+00
  0.00000000E+00  0.00000000E+00  0.00000000E+00
  0.00000000E+00  0.00000000E+00  0.00000000E+00
  0.00000000E+00  0.00000000E+00  0.00000000E+00
  0.00000000E+00  0.00000000E+00  0.00000000E+00
  0.00000000E+00  0.00000000E+00  0.00000000E+00
  0.00000000E+00  0.00000000E+00  0.00000000E+00
  0.00000000E+00  0.00000000E+00  0.00000000E+00
  0.00000000E+00  0.00000000E+00  0.00000000E+00
  0.00000000E+00  0.00000000E+00  0.00000000E+00
  0.00000000E+00  0.00000000E+00  0.00000000E+00
  0.00000000E+00  0.00000000E+00  0.00000000E+00
  0.00000000E+00  0.00000000E+00  0.00000000E+00
  0.00000000E+00  0.00000000E+00  0.00000000E+00
  0.00000000E+00  0.00000000E+00  0.00000000E+00
  0.00000000E+00  0.00000000E+00  0.00000000E+00
  0.00000000E+00  0.00000000E+00  0.00000000E+00
  0.00000000E+00  0.00000000E+00  0.00000000E+00
  0.00000000E+00  0.00000000E+00  0.00000000E+00
  0.00000000E+00  0.00000000E+00  0.00000000E+00
  0.00000000E+00  0.00000000E+00  0.00000000E+00
  0.00000000E+00  0.00000000E+00  0.00000000E+00
  0.00000000E+00  0.00000000E+00  0.00000000E+00
  0.00000000E+00  0.00000000E+00  0.00000000E+00
  0.00000000E+00  0.00000000E+00  0.00000000E+00
  0.00000000E+00  0.00000000E+00  0.00000000E+00
  0.00000000E+00  0.00000000E+00  0.00000000E+00
  0.00000000E+00  0.00000000E+00  0.00000000E+00
  0.00000000E+00  0.00000000E+00  0.00000000E+00
  0.00000000E+00  0.00000000E+00  0.00000000E+00
  0.00000000E+00  0.00000000E+00  0.00000000E+00
  0.00000000E+00  0.00000000E+00  0.00000000E+00
  0.00000000E+00  0.00000000E+00  0.00000000E+00
  0.00000000E+00  0.00000000E+00  0.00000000E+00
  0.00000000E+00  0.00000000E+00  0.00000000E+00
  0.00000000E+00  0.00000000E+00  0.00000000E+00
  0.00000000E+00  0.00000000E+00  0.00000000E+00
  0.00000000E+00  0.00000000E+00  0.00000000E+00
  0.00000000E+00  0.00000000E+00  0.00000000E+00
  0.00000000E+00  0.00000000E+00  0.00000000E+00
  0.00000000E+00  0.00000000E+00  0.00000000E+00
  0.00000000E+00  0.00000000E+00  0.00000000E+00
  0.00000000E+00  0.00000000E+00  0.00000000E+00
  0.00000000E+00  0.00000000E+00  0.00000000E+00
  0.00000000E+00  0.00000000E+00  0.00000000E+00
  0.00000000E+00  0.00000000E+00  0.00000000E+00
  0.00000000E+00  0.00000000E+00  0.00000000E+00
  0.00000000E+00  0.00000000E+00  0.00000000E+00
  0.00000000E+00  0.00000000E+00  0.00000000E+00
  0.00000000E+00  0.00000000E+00  0.00000000E+00
  0.00000000E+00  0.00000000E+00  0.00000000E+00
  0.00000000E+00  0.00000000E+00  0.00000000E+00
  0.00000000E+00  0.00000000E+00  0.00000000E+00
  0.00000000E+00  0.00000000E+00  0.00000000E+00
  0.00000000E+00  0.00000000E+00  0.00000000E+00
  0.00000000E+00  0.00000000E+00  0.00000000E+00
  0.00000000E+00  0.00000000E+00  0.00000000E+00
  0.00000000E+00  0.00000000E+00  0.00000000E+00
