Al 
 1.0000000000000000
    11.4551298552220704    0.0000000000000000    0.0000000000000000
     0.0000000000000000   17.1826947828331065    0.0000000000000000
     0.0000000000000000    0.0000000000000000   58.2249999999999943
 240
Cartesian
  1.2896234051222020  1.2513546088732561 20.1058158171479811
  4.1387937535245438  1.3908458053561128 19.7896293787257385
  7.0454839734497092  1.4020174042549205 20.1759280920288901
  9.9442672205570801  1.4584130289934809 19.8664319026891043
  1.2566295019914757  4.3235708474875594 19.9825466087998329
  4.2687445731623903  4.3285369314119251 20.0822697762256794
  7.0253191715718630  4.2898022855718594 19.9773624188107348
  9.9849060906246994  4.3158784659250689 20.1111887818643922
  1.3382406293133819  7.2552310301580611 19.9127528710431747
  4.2357906031062997  7.1604874910557701 19.9457184695066161
  7.0211929350555424  7.0861714391181936 19.9715188713573504
  9.8549717767326417  7.1219168242645399 19.9544070451638902
  1.3089607449361533 10.1097508808737260 19.9205899826813564
  4.0451360772800680  9.9843164021380808 19.9070537496182389
  6.9533639440289718 10.0521071000973290 19.8866388461627963
  9.8244100851962042 10.1238893904546625 19.9926310115496939
  1.2987275787258248 12.8847656774922026 20.0006995826870835
  4.0913732292413227 12.7090964646261266 19.9937509581647568
  7.0811220973598825 12.8230945191813799 20.0019865120663702
  9.8119900518177143 12.9420577473636840 19.9378487403439415
  1.2706571916577196 15.6310900497359349 19.9632548414844244
  4.1995832827362882 15.6245739787735278 20.0543867785500716
  7.0522748553213770 15.6800281153648040 19.9837956777483257
  9.8208784162015128 15.8347426941810152 19.9543215962872544
 -0.0101290224622787 -0.0068926450454618 22.1243674040292042
  2.8679403599757753 -0.0297150651848438 22.0663642006478113
  5.6308191528859490 -0.0182194416959554 22.0497043338636693
  8.5602481563358328  0.0322881640447636 22.1080616011678686
 -0.0841939398295666  2.7981383770884376 22.0700324502031258
  2.8416530540547309  2.9175209324573883 21.9302289430264281
  5.6443405944039329  2.8655242714804783 22.0627590731729271
  8.5648580584421019  2.8780985413409561 22.0419499722861048
 -0.0057455562689521  5.6390496748407903 22.1229023625883165
  2.8487878689310615  5.8046758914981558 21.9075315572849298
  5.7085281099494107  5.8487454571861024 22.1341634843055104
  8.5000182243253590  5.7544738618071856 22.0595292629283257
 -0.0478500795539179  8.4384883913799626 22.0838610476848025
  2.8978365541820730  8.5847173392141318 21.9672654652866441
  5.5608278052236368  8.6157120024008620 21.9012806938344760
  8.5273239163693688  8.6297576496008865 22.0017749637362421
 -0.1032203187439698 11.3798382064111934 22.0349093545718873
  2.8074747376956011 11.4141164347434447 22.0757742652943989
  5.6243219485210254 11.3830932940209504 21.9364138115541856
  8.4893951078252066 11.4866815108941367 22.0123040884624217
 -0.1242229762310372 14.2779676353846785 22.0989637973147133
  2.7919554409232452 14.2966294622749963 22.0520923663803075
  5.6279259180267598 14.1971185786391558 22.0197006632942767
  8.3895245588066079 14.3510858723948562 21.9589567743858751
  1.2758200546590281  1.4218375269863683 24.0258756258869397
  4.1903679541310082  1.3792548273560059 24.0203659943369630
  7.0121450182153540  1.5130503690035069 24.0024843052725352
  9.9627681655140901  1.4119785050379581 24.1578614969389314
  1.3955008545442300  4.2174236484934786 24.0039821132504123
  4.2468225428634536  4.3764866220102991 23.9753427256382352
  7.1312441404442435  4.3364468444478401 23.9642210031699001
  9.8614377966802902  4.2903386652054500 24.0064297983504957
  1.4093812519035442  7.0740162217558655 23.9744708875807682
  4.1270488352768249  7.1428733115050953 24.0364122844467225
  7.0591710627291295  7.2427868411545457 23.9705688587979715
  9.9713622083724154  7.1468461320880632 23.9749330188504253
  1.3206477926021138  9.8810503086371355 24.0148765507089159
  4.2854747081049656  9.9830521335215376 24.0389735387517867
  7.1012693479296942 10.0121428818322791 23.9423880677067942
  9.9754931083556340  9.9755802294755114 24.0047406879017373
  1.3497172614414394 12.8984428819787293 24.0307523512404906
  4.2539594285571658 12.8196161589836404 24.1379146807952445
  7.1077204293613025 12.8440230544847367 24.0646471037934901
  9.9909939925513740 12.7364714757750619 23.9561357841903799
  1.3983021586900513 15.6612744211545358 23.9509425407896934
  4.3492322986706213 15.6660152502105721 24.0621106857627254
  7.0800310733618179 15.7600828636079342 24.0180249171346034
  9.9708348015819936 15.6409219828728734 24.1539031983658852
  0.0126586353094624 -0.0205560537415626 26.2133705255151916
  2.7599178137291185  0.0036645603267339 25.8978159942899602
  5.6656807581281923  0.0022721041656812 26.0586877297554693
  8.4624508329293597  0.0531125093855579 26.1141029129384954
 -0.0528756750233592  2.8926446645039543 26.0164627880032668
  2.8829008821643103  3.0335620390251461 26.0437110388928694
  5.7989374013647943  2.8643244500410985 26.1324556740313483
  8.5585578645364109  2.9661534915409011 25.9885281856853716
 -0.0540674189015141  5.7777966279265911 25.9611858813861645
  2.7787908275799698  5.8130340855010632 26.0574116726170004
  5.6535085462877914  5.6965635186303949 26.0269231754368597
  8.4817888032686852  5.7875837721042132 25.9913335837761501
 -0.0662234533683946  8.6324409320482438 25.9959545411958359
  2.8745953006514799  8.5877235376915309 25.9459187801742743
  5.7351606285089867  8.5833026508994301 25.9293299555458070
  8.5797685048911312  8.6647789901592294 26.0510658345962973
  0.0080098517043480 11.4377287069502209 25.9906185728933892
  2.8690889974718652 11.4361261470418381 26.0789840811237710
  5.7639535309900651 11.3915976799697347 26.0549854515657842
  8.7321946913012276 11.4558067489973876 26.0827973699543918
 -0.0659385825794647 14.2783939236882045 26.0594808088450804
  2.8204257769060921 14.2897002548517165 26.0422870009357794
  5.6848077639002002 14.2600851573680956 26.0913885382747353
  8.6361039418006680 14.3382959832019061 25.9900239471562458
  1.4077420334944524  1.5796010243637875 28.2215845724314320
  4.2967834312491329  1.5413413891630381 28.0883957333121508
  7.2517337045593395  1.3430468108235705 28.1819253764030329
  9.9425552000823281  1.5568760179804133 28.0631018307246336
  1.5380563710416695  4.3877232483377462 28.0985200110434050
  4.2697929143973532  4.2799508582863286 28.1337339640883357
  7.1754724140234183  4.3233316983873431 28.1797968275373094
  9.8884930546315122  4.4863460070503258 28.1800097740812987
  1.4277038277708911  7.0959743683938896 28.0969075034658502
  4.2731153250642997  7.2783695744169643 28.0307846590089191
  7.2212830994449169  7.2192968907565982 28.0128272964617544
 10.0509076962200563  7.2162751371166776 28.1046486161670046
  1.3594721494463429  9.8679008806794979 28.1330519582957983
  4.2785894127848607 10.0578595310613021 28.0510015177587668
  6.9979077034364785 10.1205256213970340 28.0264359116726531
  9.8965178544751780 10.1234422151068024 28.2260155044840424
  1.4647028160294953 12.7785512737563547 28.0116494424839182
  4.2749458865489665 12.9110910383580570 28.0572076851180015
  7.1855125810636133 12.9010466194326590 28.0851470579425921
 10.0462331105686751 13.0082899405505117 28.1771696718832558
  1.5671029298178529 15.7586360685350133 28.1063990557018677
  4.2165650332248976 15.8335527272011287 28.1591886749115154
  7.1244944382004878 15.7092773368499188 28.0946548028588126
  9.9862197001239039 15.7440878288409802 28.1029766457197248
  0.0121369482164959  0.0026739642589957 30.0961539343674751
  2.7989574607317897 -0.0407882931642750 30.1737026726703910
  5.6617410770737910  0.0319902626560108 30.0810998266213900
  8.4903090553899254 -0.0821763648696019 30.0871800700731633
 -0.1955619273602801  2.8284673803675999 30.0065703357511744
  2.7191023670394761  2.9581299542773847 30.1387283957885295
  5.7062321170709716  2.8035088300823525 30.0400205371882265
  8.4015294079501857  2.9450022041674959 30.1908451624504224
 -0.1323784354407944  5.7508514844034764 30.2203477413509560
  2.7887310337577813  5.7911512374502276 30.1654703076077801
  5.6169121906051842  5.7336887373062817 30.1782833718794308
  8.4886772741431962  5.7852274026624348 30.2179794288194579
 -0.2046376535285352  8.5505980253954466 30.1382317643156910
  2.6962643800258963  8.6318235970410004 30.1921526964518918
  5.6614908152226677  8.5338289962407163 30.1762941284104933
  8.3725767907703315  8.5743272355101681 30.0911715432859204
 -0.0744236797917878 11.4374021072898628 30.1306443533100570
  2.7357580255584426 11.4140486849416867 29.9890279944734921
  5.6311991611491532 11.4133689150173616 30.0198999799430943
  8.3538176156979116 11.4134992882547301 30.1512174551724677
 -0.0214742943842099 14.3056779045386886 30.0924017723958670
  2.7719806009366383 14.2134758495241265 30.0932130614269369
  5.5964149262990901 14.3858040981139013 30.1173254683281009
  8.4944744310939040 14.3105641544326510 30.0787395606548209
  1.2254407838900376  1.3870511477053056 32.1264203586141406
  4.1354803449711079  1.4586934230202488 32.1085819217919806
  7.0190742187120687  1.4204717499549462 32.0989961881748087
  9.9701010762245570  1.4712330693915308 32.0911293505404203
  1.3185120263959726  4.2404233433435703 32.0983522724993833
  4.1470811003319099  4.2230002140049416 32.1136497835777206
  7.1460343480542106  4.3070051825077913 32.2385540805178650
  9.8310075469782205  4.3878884617251916 32.2032983343685899
  1.4028216536618816  7.0616669573769517 32.1985426459992468
  4.1914998773824221  7.2138124445784912 32.1668333393321078
  7.1317370322154883  7.2410838281202095 32.1482267420152468
  9.9741419354879017  7.1960797775572463 32.2452048224321430
  1.3162464308437043  9.9820240628379668 32.2752378432489593
  4.2745851925767742  9.9505800228590857 32.0600230480140098
  7.2372935456635599 10.0409853546534453 32.1886661314796356
  9.9727090422453770  9.9356085988918412 32.2154825157100788
  1.4016332690513018 12.8613694201623154 32.0560708511289647
  4.2649042895736686 12.8814531385207882 32.0097800113536763
  7.0661334163167648 12.9145262458035592 32.1297149183623532
  9.8726413190350577 12.7807161315523672 32.0710104607829223
  1.3448175226697701 15.7728341215675645 32.1201886951404418
  4.2128754276815314 15.7343065941291087 32.1170958012971539
  7.0664473383846174 15.7782673526659689 32.1403330007411938
  9.9993739578352301 15.8029076678678422 31.9677007749654045
 -0.1254047413370362 -0.0378591113389491 34.0613963230211496
  2.8210312556567181 -0.1186663486459914 34.1126168210581113
  5.6831063164023838 -0.0563246892718932 34.2292788422775303
  8.6386038054019707 -0.1364664210467078 33.9747645730690451
 -0.0977422812796406  2.8261347035086546 34.1198120788222354
  2.8000500037883898  2.7350581982085580 34.2253405027194191
  5.6955339693818399  2.8271358368483690 34.0825923944048128
  8.5179080390237658  2.7732470058391119 34.1424562992860530
 -0.1083013849972851  5.8128574490475122 34.1881749190036501
  2.9009070179715968  5.7999416968559112 34.0905044315747432
  5.7086965597382031  5.7109471977132058 34.0957628296243129
  8.5846408037487869  5.7116377240751222 34.1728219253049090
 -0.1100810322781648  8.5686547217168556 34.3456336287621369
  2.7783638914725488  8.5782654760754831 34.2850795212743478
  5.6864019108759516  8.6660146551596160 34.0918469493454097
  8.4502229008433449  8.5343534616886227 34.1118657484356120
 -0.1851203219954273 11.4817993761079791 34.2960939823680988
  2.9071639326659855 11.3341411393354701 34.0686204638241250
  5.7362592442684370 11.4088110694828959 34.2313213777129945
  8.5083852717330775 11.4230895820061722 34.2287138950743568
  0.0137649016383604 14.2052826796332550 34.0717108325328439
  2.9114223589555293 14.1856315595948121 34.1486247881086058
  5.5725876455597030 14.1876395849945851 34.1209351126934948
  8.5721220957724569 14.3249025770699703 34.1914014972475684
  1.3564965962641042  1.3403248522460036 36.1639948969088820
  4.1854949085879207  1.2689541234344990 36.1608991688616328
  7.0159443070274108  1.4604298723110691 36.1651926681627103
  9.9200698012074913  1.4534076664068523 36.0288154301315089
  1.3886721889926670  4.4306437733902095 36.1474905588392730
  4.1936162702638740  4.1999490032792384 36.2033838707599145
  7.0336488394179293  4.4447594083862709 36.2299791730892053
 10.0074099095143918  4.2591129743680831 36.1088309238838576
  1.3940177705414547  7.1296514964603208 36.1975040702457775
  4.3039240151398666  7.0169442392498151 36.1672459497229326
  7.1007075246664089  7.1066712329639845 36.2181068904235275
  9.9129655248121598  7.1646177192977705 36.1960065846592087
  1.4817588310526790 10.0774671688188171 36.1401178762882296
  4.2459380103854194  9.8505120429375612 36.3576319338975722
  7.0799396551903317  9.9022578771554741 36.2271019556542839
  9.8897489305111286 10.0795310545375845 36.3079501272402112
  1.3503347340670870 12.8971813655421546 36.1414775529473644
  4.2520951809437602 12.7328890385373974 36.2627853363383963
  7.1783844516318505 12.7416656918164541 36.1820361262335126
 10.0386936786478334 12.8240805975228493 36.2134787412408343
  1.3135861847429298 15.6386739758907076 36.1047770704360715
  4.1875911021467092 15.5466831061976460 36.1534594957817106
  7.0547309034308494 15.7401963481446927 36.0843150907744530
  9.8783081088177020 15.7529781248811993 36.1126647829093557
 -0.0186341253488174 -0.0558523879164829 38.2287976509662499
  2.7940155031851255 -0.0992393397725407 38.2158683537838613
  5.6629318409441138 -0.0306756436084897 38.0764570768704900
  8.4304083198639681  0.0588585517376146 38.1731379708231557
 -0.0937365474569167  2.8300776016067051 38.1752972848757324
  2.8172730659144598  2.7208604650909840 38.0323264166008386
  5.6481136998715646  2.7752884129654403 38.0432060257603055
  8.5269352098332476  2.7981931439278673 37.9952950396488234
 -0.0167953051569108  5.6189891179042197 38.2426486581031284
  2.7124670053723157  5.6911063217811408 38.3488145634466377
  5.6758088645598646  5.6208456066959460 38.3118833876000622
  8.6043641624573421  5.6653859419225308 38.1398084964982971
  0.0045853366304492  8.6624175647521149 38.1165602585582093
  2.7046032516105867  8.5103889384557210 38.3550819299502166
  5.6977521009779739  8.4668307958735447 38.2266864735122383
  8.6311101362090916  8.5402932879816262 38.2438247911288371
  0.0670657891821093 11.5104223933765510 38.1273165839430348
  2.7689853972846543 11.5005914993781886 38.1759208124726257
  5.5957343862726274 11.4070612343130264 38.2436853096232738
  8.5237435693848642 11.4758781067681976 38.2871142773455873
 -0.1437224159539456 14.2933171007694551 38.2049779109544687
  2.8614094542992001 14.2023933484446641 38.3481128038072399
  5.7419989626336134 14.2411795766001923 38.0291191375391833
  8.5777792328351463 14.3006132384546731 38.2905050235129636
