Al                                      
   1.00000000000000     
    11.4551298552220704    0.0000000000000000    0.0000000000000000
     0.0000000000000000   17.1826947828331065    0.0000000000000000
     0.0000000000000000    0.0000000000000000   50.1250000000000000
   Al
   144
Direct
  0.1073974343544819  0.0827660048352072  0.3995980407288471
  0.3579163291281020  0.0852661952018892  0.3974922921065982
  0.6041042719918792  0.0919059148272154  0.3981520397134943
  0.8575161107963751  0.0888522740190894  0.3996607818118605
  0.1164247600449286  0.2464396173512640  0.3965219061952183
  0.3644438179533296  0.2585112249883323  0.3977395154161840
  0.6152142049249392  0.2516141101595863  0.3971081338532443
  0.8709491335575592  0.2576840733916868  0.3961471507073284
  0.1158176167094425  0.4200792426426077  0.4002538260570319
  0.3579119121451413  0.4265420582124193  0.3970655087408659
  0.6112359592202168  0.4218810398126891  0.3963809749729066
  0.8592082786562614  0.4261209701381148  0.4001315992204795
  0.1135822789938459  0.5848291294116521  0.3961928700675728
  0.3638718304228661  0.5917008731823472  0.3973907113291588
  0.6204648577776268  0.5885026646357829  0.3974351231135742
  0.8580431899819345  0.5851671037594812  0.3996890420016541
  0.1063128818007542  0.7558777484105406  0.3975747912011087
  0.3577105716376607  0.7546181149574096  0.3986289650215085
  0.6099971953051124  0.7511623114407300  0.3998463189602361
  0.8498884801615958  0.7541694623705908  0.3970934734551506
  0.0873721164341177  0.9192302752485375  0.3988057553396231
  0.3466188769488241  0.9196839362476368  0.3986800441204821
  0.6060090436902641  0.9173432279850573  0.3979366587410098
  0.8477901992408121  0.9261866559306995  0.3959794262911984
  0.9776456897975834  0.0078520317625816  0.4387675911100786
  0.2349084655104861  0.0114702297719944  0.4394836829546946
  0.4816031628146291  0.0095237307729903  0.4378045151550225
  0.7278391922501655  0.0111656784827261  0.4376233979235167
  0.9843767037216864  0.1747357800682892  0.4376606084450430
  0.2363729993483759  0.1746484708327571  0.4370169798615890
  0.4878759488916984  0.1793399888258307  0.4381459018278022
  0.7381474789396876  0.1809408820055722  0.4379644091556045
  0.9905827545210286  0.3359672623286016  0.4374146858867505
  0.2334007779220855  0.3401851395349667  0.4366271107226680
  0.4855221760323118  0.3421645973200356  0.4355325322660590
  0.7520761893401087  0.3368521962666762  0.4381111119107999
  0.9913102882695810  0.5083496015179492  0.4392374910129320
  0.2325754773195428  0.5065206287679231  0.4375768819396697
  0.4933449691107512  0.5105426992926354  0.4372520681670551
  0.7377014620765223  0.5127675917738159  0.4383086354189061
  0.9817112943836506  0.6681962885975992  0.4362763706350989
  0.2290952940546020  0.6730716024655479  0.4376815758492469
  0.4912215829620195  0.6722909599459683  0.4396938942015041
  0.7445665610604948  0.6818237232112736  0.4376172276731793
  0.9812568695504282  0.8435792119149070  0.4386570572772044
  0.2367190599643223  0.8395548528597985  0.4377169720776948
  0.4892467419697510  0.8374281299148407  0.4392867141335159
  0.7326059907099491  0.8453924637563048  0.4376472593662726
  0.1045060648221963  0.0915492238925708  0.4775114583732218
  0.3582614720893034  0.0918835656799288  0.4782340741688458
  0.6064859079554310  0.0884793653900502  0.4778653957489354
  0.8569635009948087  0.0844425916548275  0.4780441118805641
  0.0975594824504924  0.2541476845717980  0.4785230582040256
  0.3518621101662589  0.2641293965578697  0.4764391892535400
  0.6104304217917331  0.2601294677008354  0.4765308529708818
  0.8557911082340581  0.2532684940078411  0.4791043403653958
  0.0995525332847507  0.4228538865274984  0.4783504177629254
  0.3616816300588255  0.4192568367347320  0.4758403364581767
  0.6062971885616548  0.4243643535922104  0.4770018569767913
  0.8546763532433630  0.4194137202553136  0.4785636157948190
  0.1125345806754297  0.5921560475750027  0.4798414944124190
  0.3638024211421893  0.5870377985716573  0.4766318758518935
  0.6088986596042218  0.5913534207416760  0.4803190675909548
  0.8612372489488394  0.5911844057279581  0.4806711219916124
  0.1171820988327781  0.7539201565711480  0.4768378838075265
  0.3700879641565180  0.7508022063765267  0.4794346818774216
  0.6294250782278468  0.7543423900760828  0.4797237376849708
  0.8750346493024352  0.7585358913493394  0.4768399351231380
  0.1188141845168644  0.9254092917533470  0.4798718297306692
  0.3604398985024488  0.9187497572354175  0.4780965121900707
  0.6076196295105376  0.9212249347424617  0.4775154500354120
  0.8539459315448070  0.9246956312227894  0.4785924676736499
  0.9869890923129816  0.0024138292953850  0.5185061560448219
  0.2334599384985196  0.0100564979324318  0.5194073488941342
  0.4799262867490697  0.0060498836668614  0.5200093377467923
  0.7321156599388772  0.0041686972495825  0.5191949754660783
  0.9804244586403712  0.1690094935360165  0.5187384797212786
  0.2249407354586168  0.1772318477094572  0.5177575238124987
  0.4700430015330213  0.1736314267347225  0.5166405486574490
  0.7258713790856248  0.1701162387608264  0.5200093659986251
  0.9835702318855937  0.3409475022746662  0.5193954534502367
  0.2259467618695155  0.3417115626606773  0.5181871336337593
  0.4784481160114069  0.3399188919729639  0.5160084233925133
  0.7304518644962741  0.3357520209834775  0.5180116492559250
  0.9743381872815817  0.5056418397904352  0.5183459628306437
  0.2283968605248958  0.5036236062991364  0.5167976562268422
  0.4767037240324257  0.5019994641080743  0.5184761559415065
  0.7313694536838469  0.5067874570687891  0.5201133215439171
  0.9806067798136624  0.6707096285687655  0.5196520651907619
  0.2379158412007811  0.6722840047383940  0.5189881617362460
  0.4802975114847854  0.6750915046625749  0.5192081340018220
  0.7360439294632073  0.6723989577634484  0.5183331539907314
  0.9858331285359014  0.8358269924172816  0.5190108158835116
  0.2406828935796668  0.8401519264928083  0.5168978349472866
  0.4897096576732523  0.8363501560803144  0.5179102479406765
  0.7414156898239668  0.8406146483746966  0.5199987932478507
  0.0999468353933963  0.0861981513631136  0.5585476251790240
  0.3511120945043231  0.0863397086583007  0.5578517822870026
  0.6015064686159590  0.0893261573452975  0.5572797065727286
  0.8522471210988556  0.0923604672463441  0.5593982406088287
  0.1042818723970811  0.2582225250392867  0.5569060592154855
  0.3539545310831471  0.2499788406727887  0.5585701207477598
  0.6049547853848907  0.2564703677190039  0.5569421199752114
  0.8638971143866385  0.2517145858269458  0.5589080972265492
  0.1064135393635652  0.4228047878682943  0.5595553764978121
  0.3572291233644975  0.4225361807654693  0.5589144354523796
  0.6060578607031033  0.4196193169190963  0.5567701442204083
  0.8535668423955087  0.4184062560384376  0.5588055946723500
  0.1057614873044130  0.5862614343809440  0.5577980177082225
  0.3563771794934496  0.5918135785876046  0.5599769739552016
  0.6055503394121402  0.5855630974614812  0.5593006831596554
  0.8615455308098348  0.5922600127706943  0.5597036285531800
  0.1122905372206660  0.7546574708912530  0.5567399651452973
  0.3550984581394800  0.7593842529769574  0.5581148323900749
  0.6104568099996754  0.7535646471327482  0.5584612528133448
  0.8681681586348304  0.7560309973550403  0.5595510208232284
  0.1121834671813033  0.9170970826909652  0.5582352166910027
  0.3586932485112300  0.9213076874596595  0.5588156556268800
  0.6039515973613021  0.9247324598956652  0.5603977469139352
  0.8564053327886327  0.9165828339192927  0.5582271561885932
  0.9888867718401713  0.0061091528096995  0.5970077270785197
  0.2399870020377151  0.9995761877702023  0.5975446175495378
  0.4760363378112729  0.0120401097856515  0.5985909978369790
  0.7394628694139342  0.0022480137887300  0.5955862737412261
  0.9762103262019721  0.1836317455654424  0.6022045199608570
  0.2261139328217183  0.1695964983664879  0.5964906746889440
  0.4907946490949797  0.1722292354902919  0.5980788310069940
  0.7243319266060553  0.1754703966934628  0.6002639627271193
  0.9751429178672737  0.3401934360617815  0.5991816787434274
  0.2405340042793611  0.3428545543508150  0.6000359233957582
  0.4802140470954868  0.3364156459289660  0.5944697668520789
  0.7281474786168047  0.3349660463631423  0.5983013471419412
  0.9772347089671953  0.5058473687080465  0.5996435284748003
  0.2373951250481383  0.5171114059716473  0.6000062323433752
  0.4940110417538719  0.5025096921378420  0.5988694977068860
  0.7357181484706103  0.5054488064032583  0.5968675471878839
  0.0038304443048460  0.6664572151536632  0.6001642733114991
  0.2414787384066415  0.6749446446946692  0.5981493449807118
  0.4807270135871633  0.6743465971691833  0.5994192099879641
  0.7444756204439997  0.6746437333683843  0.5992020055612315
  0.9958290910005161  0.8435504508186540  0.5956975471967425
  0.2411216940598564  0.8352991799859666  0.5998953267794036
  0.4891188081503799  0.8370936294442970  0.5991059716467575
  0.7251507579005576  0.8463976784486178  0.6002399518525010
 
  0.00000000E+00  0.00000000E+00  0.00000000E+00
  0.00000000E+00  0.00000000E+00  0.00000000E+00
  0.00000000E+00  0.00000000E+00  0.00000000E+00
  0.00000000E+00  0.00000000E+00  0.00000000E+00
  0.00000000E+00  0.00000000E+00  0.00000000E+00
  0.00000000E+00  0.00000000E+00  0.00000000E+00
  0.00000000E+00  0.00000000E+00  0.00000000E+00
  0.00000000E+00  0.00000000E+00  0.00000000E+00
  0.00000000E+00  0.00000000E+00  0.00000000E+00
  0.00000000E+00  0.00000000E+00  0.00000000E+00
  0.00000000E+00  0.00000000E+00  0.00000000E+00
  0.00000000E+00  0.00000000E+00  0.00000000E+00
  0.00000000E+00  0.00000000E+00  0.00000000E+00
  0.00000000E+00  0.00000000E+00  0.00000000E+00
  0.00000000E+00  0.00000000E+00  0.00000000E+00
  0.00000000E+00  0.00000000E+00  0.00000000E+00
  0.00000000E+00  0.00000000E+00  0.00000000E+00
  0.00000000E+00  0.00000000E+00  0.00000000E+00
  0.00000000E+00  0.00000000E+00  0.00000000E+00
  0.00000000E+00  0.00000000E+00  0.00000000E+00
  0.00000000E+00  0.00000000E+00  0.00000000E+00
  0.00000000E+00  0.00000000E+00  0.00000000E+00
  0.00000000E+00  0.00000000E+00  0.00000000E+00
  0.00000000E+00  0.00000000E+00  0.00000000E+00
  0.00000000E+00  0.00000000E+00  0.00000000E+00
  0.00000000E+00  0.00000000E+00  0.00000000E+00
  0.00000000E+00  0.00000000E+00  0.00000000E+00
  0.00000000E+00  0.00000000E+00  0.00000000E+00
  0.00000000E+00  0.00000000E+00  0.00000000E+00
  0.00000000E+00  0.00000000E+00  0.00000000E+00
  0.00000000E+00  0.00000000E+00  0.00000000E+00
  0.00000000E+00  0.00000000E+00  0.00000000E+00
  0.00000000E+00  0.00000000E+00  0.00000000E+00
  0.00000000E+00  0.00000000E+00  0.00000000E+00
  0.00000000E+00  0.00000000E+00  0.00000000E+00
  0.00000000E+00  0.00000000E+00  0.00000000E+00
  0.00000000E+00  0.00000000E+00  0.00000000E+00
  0.00000000E+00  0.00000000E+00  0.00000000E+00
  0.00000000E+00  0.00000000E+00  0.00000000E+00
  0.00000000E+00  0.00000000E+00  0.00000000E+00
  0.00000000E+00  0.00000000E+00  0.00000000E+00
  0.00000000E+00  0.00000000E+00  0.00000000E+00
  0.00000000E+00  0.00000000E+00  0.00000000E+00
  0.00000000E+00  0.00000000E+00  0.00000000E+00
  0.00000000E+00  0.00000000E+00  0.00000000E+00
  0.00000000E+00  0.00000000E+00  0.00000000E+00
  0.00000000E+00  0.00000000E+00  0.00000000E+00
  0.00000000E+00  0.00000000E+00  0.00000000E+00
  0.00000000E+00  0.00000000E+00  0.00000000E+00
  0.00000000E+00  0.00000000E+00  0.00000000E+00
  0.00000000E+00  0.00000000E+00  0.00000000E+00
  0.00000000E+00  0.00000000E+00  0.00000000E+00
  0.00000000E+00  0.00000000E+00  0.00000000E+00
  0.00000000E+00  0.00000000E+00  0.00000000E+00
  0.00000000E+00  0.00000000E+00  0.00000000E+00
  0.00000000E+00  0.00000000E+00  0.00000000E+00
  0.00000000E+00  0.00000000E+00  0.00000000E+00
  0.00000000E+00  0.00000000E+00  0.00000000E+00
  0.00000000E+00  0.00000000E+00  0.00000000E+00
  0.00000000E+00  0.00000000E+00  0.00000000E+00
  0.00000000E+00  0.00000000E+00  0.00000000E+00
  0.00000000E+00  0.00000000E+00  0.00000000E+00
  0.00000000E+00  0.00000000E+00  0.00000000E+00
  0.00000000E+00  0.00000000E+00  0.00000000E+00
  0.00000000E+00  0.00000000E+00  0.00000000E+00
  0.00000000E+00  0.00000000E+00  0.00000000E+00
  0.00000000E+00  0.00000000E+00  0.00000000E+00
  0.00000000E+00  0.00000000E+00  0.00000000E+00
  0.00000000E+00  0.00000000E+00  0.00000000E+00
  0.00000000E+00  0.00000000E+00  0.00000000E+00
  0.00000000E+00  0.00000000E+00  0.00000000E+00
  0.00000000E+00  0.00000000E+00  0.00000000E+00
  0.00000000E+00  0.00000000E+00  0.00000000E+00
  0.00000000E+00  0.00000000E+00  0.00000000E+00
  0.00000000E+00  0.00000000E+00  0.00000000E+00
  0.00000000E+00  0.00000000E+00  0.00000000E+00
  0.00000000E+00  0.00000000E+00  0.00000000E+00
  0.00000000E+00  0.00000000E+00  0.00000000E+00
  0.00000000E+00  0.00000000E+00  0.00000000E+00
  0.00000000E+00  0.00000000E+00  0.00000000E+00
  0.00000000E+00  0.00000000E+00  0.00000000E+00
  0.00000000E+00  0.00000000E+00  0.00000000E+00
  0.00000000E+00  0.00000000E+00  0.00000000E+00
  0.00000000E+00  0.00000000E+00  0.00000000E+00
  0.00000000E+00  0.00000000E+00  0.00000000E+00
  0.00000000E+00  0.00000000E+00  0.00000000E+00
  0.00000000E+00  0.00000000E+00  0.00000000E+00
  0.00000000E+00  0.00000000E+00  0.00000000E+00
  0.00000000E+00  0.00000000E+00  0.00000000E+00
  0.00000000E+00  0.00000000E+00  0.00000000E+00
  0.00000000E+00  0.00000000E+00  0.00000000E+00
  0.00000000E+00  0.00000000E+00  0.00000000E+00
  0.00000000E+00  0.00000000E+00  0.00000000E+00
  0.00000000E+00  0.00000000E+00  0.00000000E+00
  0.00000000E+00  0.00000000E+00  0.00000000E+00
  0.00000000E+00  0.00000000E+00  0.00000000E+00
  0.00000000E+00  0.00000000E+00  0.00000000E+00
  0.00000000E+00  0.00000000E+00  0.00000000E+00
  0.00000000E+00  0.00000000E+00  0.00000000E+00
  0.00000000E+00  0.00000000E+00  0.00000000E+00
  0.00000000E+00  0.00000000E+00  0.00000000E+00
  0.00000000E+00  0.00000000E+00  0.00000000E+00
  0.00000000E+00  0.00000000E+00  0.00000000E+00
  0.00000000E+00  0.00000000E+00  0.00000000E+00
  0.00000000E+00  0.00000000E+00  0.00000000E+00
  0.00000000E+00  0.00000000E+00  0.00000000E+00
  0.00000000E+00  0.00000000E+00  0.00000000E+00
  0.00000000E+00  0.00000000E+00  0.00000000E+00
  0.00000000E+00  0.00000000E+00  0.00000000E+00
  0.00000000E+00  0.00000000E+00  0.00000000E+00
  0.00000000E+00  0.00000000E+00  0.00000000E+00
  0.00000000E+00  0.00000000E+00  0.00000000E+00
  0.00000000E+00  0.00000000E+00  0.00000000E+00
  0.00000000E+00  0.00000000E+00  0.00000000E+00
  0.00000000E+00  0.00000000E+00  0.00000000E+00
  0.00000000E+00  0.00000000E+00  0.00000000E+00
  0.00000000E+00  0.00000000E+00  0.00000000E+00
  0.00000000E+00  0.00000000E+00  0.00000000E+00
  0.00000000E+00  0.00000000E+00  0.00000000E+00
  0.00000000E+00  0.00000000E+00  0.00000000E+00
  0.00000000E+00  0.00000000E+00  0.00000000E+00
  0.00000000E+00  0.00000000E+00  0.00000000E+00
  0.00000000E+00  0.00000000E+00  0.00000000E+00
  0.00000000E+00  0.00000000E+00  0.00000000E+00
  0.00000000E+00  0.00000000E+00  0.00000000E+00
  0.00000000E+00  0.00000000E+00  0.00000000E+00
  0.00000000E+00  0.00000000E+00  0.00000000E+00
  0.00000000E+00  0.00000000E+00  0.00000000E+00
  0.00000000E+00  0.00000000E+00  0.00000000E+00
  0.00000000E+00  0.00000000E+00  0.00000000E+00
  0.00000000E+00  0.00000000E+00  0.00000000E+00
  0.00000000E+00  0.00000000E+00  0.00000000E+00
  0.00000000E+00  0.00000000E+00  0.00000000E+00
  0.00000000E+00  0.00000000E+00  0.00000000E+00
  0.00000000E+00  0.00000000E+00  0.00000000E+00
  0.00000000E+00  0.00000000E+00  0.00000000E+00
  0.00000000E+00  0.00000000E+00  0.00000000E+00
  0.00000000E+00  0.00000000E+00  0.00000000E+00
  0.00000000E+00  0.00000000E+00  0.00000000E+00
  0.00000000E+00  0.00000000E+00  0.00000000E+00
  0.00000000E+00  0.00000000E+00  0.00000000E+00
  0.00000000E+00  0.00000000E+00  0.00000000E+00
  0.00000000E+00  0.00000000E+00  0.00000000E+00
  0.00000000E+00  0.00000000E+00  0.00000000E+00
