Al 
 1.0000000000000000
    11.4551298552220704    0.0000000000000000    0.0000000000000000
     0.0000000000000000   17.1826947828331065    0.0000000000000000
     0.0000000000000000    0.0000000000000000   50.1250000000000000
 144
Cartesian
  1.2302515566482721  1.4221429994778967 20.0298517915336376
  4.0999780274668112  1.4651030074474778 19.9243011418430598
  6.9200928817614002  1.5791912832131461 19.9573709906387471
  9.8229584021174503  1.5267215052307166 20.0329966883195958
  1.3336607446776916  4.2344967273448919 19.8756605480354445
  4.1747512595882972  4.4419194769107708 19.9366932102361964
  7.0473586061923692  4.3234084579263277 19.9050452093938759
  9.9768354221949735  4.4277067834864683 19.8568759292048469
  1.3267058389290394  7.2180934109316066 20.0627230311087601
  4.0999274303534010  7.3291419983053725 19.9029086256360657
  7.0017872850487874  7.2490531417657147 19.8685963705169222
  9.8423424046893118  7.3219065704479522 20.0565964109265273
  1.3010997551265542 10.0489404307904522 19.8591676121370071
  4.1681990681513019 10.1670155066281627 19.9192094053740192
  7.1075055164446352 10.1120616653205992 19.9214355460677659
  9.8289961626320519 10.0547477408535730 20.0344132303328522
  1.2178278663104922 12.9880166440734826 19.9284364089554344
  4.0976210486950837 12.9663727469100039 19.9812768717031517
  6.9875970835413019 12.9069927298535028 20.0422967378820012
  9.7355829027084368 12.9586636864472187 19.9043103569395186
  1.0008589394784295 15.7948532547352709 19.9901384863987204
  3.9705642457200465 15.8026483732176501 19.9838372115390648
  6.9419122889108804 15.7624286975661398 19.9465750193929736
  9.7115468222881027 15.9143826207900734 19.8484687428462081
 -0.2560715261925979  0.1349190652014984 21.9932255043927469
  2.6909069765135665  0.1970894572611717 22.0291196081038976
  5.5168267687272499  0.1636433590661807 21.9449513221456449
  8.3374924609455725  0.1918564454119495 21.9358728209162130
 -0.1789668876347294  3.0024315765536378 21.9377379983078526
  2.7076834018039291  3.0009313686077599 21.9054761155619993
  5.5886823477941103  3.0815442903509713 21.9620633291187524
  8.4555752235589186  3.1090519492383186 21.9529660089245660
 -0.1078757698400880  5.7728229256163841 21.9254111300732397
  2.6736362194073240  5.8452974222848519 21.8859339249737204
  5.5617195740401018  5.8793098412411391 21.8310681798362047
  8.6151304099115080  5.7880284753773035 21.9603194845289984
 -0.0995417762764099  8.7348160458577677 22.0167792370232149
  2.6641822938355864  8.7033893653279986 21.9335412072260425
  5.6513306845841784  8.7724993755490797 21.9172599168735864
  8.4504660424737459  8.8107290239778298 21.9702203503726956
 -0.2094994977192341 11.4814128819943839 21.8683530780841799
  2.6243163426157134 11.5651839121579236 21.9387889894433492
  5.6270070205176488 11.5517703700094057 22.0396564468502625
  8.5291066428040772 11.7155689316341540 21.9355635371182309
 -0.2147049931932223 14.4949641234767359 21.9876849960200005
  2.7116475710973771 14.4258147901363074 21.9405632253944560
  5.6043849605078613 14.3892719588853755 22.0192465459426074
  8.3920967562961160 14.5261206764319279 21.9370688757343331
  1.1971305431965522  1.5730623717513199 23.9352618509579145
  4.1039316849060006  1.5788072646366442 23.9714829677133991
  6.9473748309917367  1.5203139300759398 23.9530029619155336
  9.8166281850812638  1.4509512790762962 23.9619611080132771
  1.1175565400786265  4.3669420937609811 23.9859682924768691
  4.0306261630869464  4.5384548042277517 23.8815143613337959
  6.9925597492023153  4.4697252475242797 23.8861090051653626
  9.8031982737655170  4.3518352306445891 24.0151050608154684
  1.1403871961930978  7.2657692699367473 23.9773146903665122
  4.1431100385722228  7.2039622612290009 23.8514968649662435
  6.9452130258298475  7.2917231644891576 23.9097180809616674
  9.7904286105903502  7.2066579428796427 23.9880012417151605
  1.2890982348400362 10.1748366292901231 24.0520549074223453
  4.1674039758279706 10.0868913188430689 23.8911727770762745
  6.9750132144370491 10.1610453373885363 24.0759932629966400
  9.8655845228631307 10.1581412039940329 24.0936399898296116
  1.3423361588369478 12.9543799409878115 23.9014989258523372
  4.2394056872676877 12.9008051544455853 24.0316634291058442
  7.2101460052332671 12.9616350504301145 24.0461523514590993
 10.0236355355781281 13.0336907028799072 23.9016017480474545
  1.3610319122830077 15.9010254093955297 24.0535754652498888
  4.1288858423485975 15.7865966603782244 23.9645876735272410
  6.9603617586251634 15.8291268800150604 23.9354619330249605
  9.7820615351843259 15.8887627983203341 23.9894474421418131
 -0.1490416370891287  0.0414760920404774 25.9901210717466107
  2.6743139114927135  0.1727977345572134 26.0352933633184449
  5.4976179356450974  0.1039533045193659 26.0654680545580106
  8.3864799536414019  0.0716294524816387 26.0246481452372400
 -0.2242403682607959  2.9040385428306106 26.0017662960291318
  2.5767253344075884  3.0453207449891111 25.9525958811015975
  5.3844036200990804  2.9834558102905770 25.8966075014547883
  8.3149509056149356  2.9230554082309017 26.0654694706809700
 -0.1882051272417435  5.8583968685549408 26.0346971041932242
  2.5882494975822241  5.8715254849633940 25.9741300733923666
  5.4806852978970140  5.8407225716902129 25.8649222225498470
  8.3674209607939343  5.7691244992784263 25.9653339189532311
 -0.2939593970098955  8.6882894025492696 25.9820913868859122
  2.6163156958377063  8.6536107124678079 25.9044825183706244
  5.4607030612594034  8.6257035729148477 25.9886173165680248
  8.3779320640912971  8.7079741945811175 26.0706802423890167
 -0.2221518555454386 11.5245988356044791 26.0475597676869945
  2.7253568555693106 11.5516508608005299 26.0142816070293748
  5.5018703631982362 11.5998912751005570 26.0253077168413469
  8.4314787911489280 11.5536260635444137 25.9814493437855383
 -0.1622833522635028 14.3617601019594900 26.0154171461609103
  2.7570537998856697 14.4360741241351942 25.9095039767327897
  5.6096877200034854 14.3707494635029018 25.9602511780264820
  8.4930130036326155 14.4440249330010264 26.0649395115485092
  1.1449039780498624  1.4811165257168581 27.9971997120984746
  4.0220346362860333  1.4835488615143089 27.9623205871361229
  6.8903347067518386  1.5348640977875916 27.9336452919580758
  9.7626014409265700  1.5870017186938026 28.0398368105173752
  1.1945623898542999  4.4369588338026036 27.9149162181761383
  4.0545951164016962  4.2953101214469429 27.9983273024814743
  6.9298356231219120  4.4068520493565799 27.9167237637574992
  9.8960536268505468  4.3251349006516335 28.0152683734808612
  1.2189809117634085  7.2649256226613543 28.0477132469527248
  4.0921059962074295  7.2603102287970920 28.0155860770504397
  6.9424714941321355  7.2101906476017907 27.9081034790480160
  9.7777190197524266  7.1893469927364171 28.0101304329516800
  1.2115115707534598 10.0735512899137625 27.9596256376247077
  4.0823468685352422 10.1689520892070604 28.0688458195044959
  6.9366577718398528 10.0615519797709716 28.0349467433777022
  9.8691159316128960 10.1766230315157369 28.0551443812282315
  1.2863026853753483 12.9670489879091519 27.9065907529081514
  4.0676989493768696 13.0482678417928124 27.9755059735523588
  6.9928620295509241 12.9482713308153983 27.9928702972688157
  9.9449789933310466 12.9906498739125844 28.0474949187641940
  1.2850761841708471 15.7581992581055452 27.9815402366365653
  4.1088777398876042 15.8305487946971528 28.0106347382972665
  6.9183439740425312 15.8893956141656538 28.0899370640609760
  9.8102342957984963 15.7493630784194671 27.9811362039532376
 -0.1273034716815095  0.1049717081108043 29.9250123198108504
  2.7490822719074663 -0.0072822361898780 29.9519239546705016
  5.4530580654324794  0.2068815315987109 30.0043737665786665
  8.4706431922517567  0.0386269347993557 29.8537619712788853
 -0.2725138025698079  3.1552882364899095 30.1855015630380770
  2.5901644625477349  2.9141248676686629 29.8990950687832537
  5.6221164376311323  2.9593623861103233 29.9787014042254469
  8.2973162775555487  3.0150542698064617 30.0882311316968156
 -0.2847411036522771  5.8454399789728262 30.0339816470144108
  2.7553482536166052  5.8911651623143078 30.0768006602123528
  5.5009142677805327  5.7805273641670576 29.7977970634605143
  8.3410239213080626  5.7556193372701729 29.9898550254896357
 -0.2607793649727040  8.6918209432096045 30.0571318647994588
  2.7193919844230869  8.8853674575324977 30.0753123962118352
  5.6589606332041305  8.6344706654200145 30.0183335725576406
  8.4277469275744057  8.6849725687745476 29.9179858027926180
  0.0438782369152388 11.4515309138023031 30.0832341997388681
  2.7661703057232909 11.5973678250961907 29.9822359171581887
  5.5067903655540729 11.5870917570001932 30.0458879006467470
  8.5280649062330696 11.5921973576200035 30.0350005287566226
 -0.0477783042034144 14.4944699303381963 29.8593395532367900
  2.7620803163667431 14.3526908620496485 30.0697532548177264
  5.6029194619940608 14.3835243393953132 30.0301868287937772
  8.3066960963636181 14.5433929736811649 30.0870275866067409
