Al                                      
   1.00000000000000     
    11.4551298552220704    0.0000000000000000    0.0000000000000000
     0.0000000000000000   17.1826947828331065    0.0000000000000000
     0.0000000000000000    0.0000000000000000   58.2249999999999943
   Al
   240
Direct
  0.1143457692478123  0.0750414553139720  0.3449481032896173
  0.3583642961883626  0.0817152851833427  0.3401093006929230
  0.6149872284423097  0.0829367926427267  0.3464305760798752
  0.8671326639569443  0.0846569755628295  0.3411495049888700
  0.1102820685876864  0.2511736407985765  0.3432166768117071
  0.3741808151525134  0.2520243748859130  0.3443470744759196
  0.6148648014086646  0.2489755337295207  0.3433647322145816
  0.8723911603460834  0.2524909673431992  0.3451066111053862
  0.1144173698339870  0.4220792985600639  0.3425172211388698
  0.3679804803670237  0.4162703790846507  0.3419338454112406
  0.6098180307218399  0.4125559906886735  0.3429850000644734
  0.8625853431939348  0.4142159128460889  0.3429129106473283
  0.1157978172505736  0.5898721746653521  0.3424192273775120
  0.3532660554319449  0.5822816683434269  0.3424062420100995
  0.6113575903932968  0.5873646366247058  0.3419799408998045
  0.8584132435143346  0.5880839441941106  0.3431746323543692
  0.1147303370511210  0.7528400757249614  0.3432306063121189
  0.3557431622755729  0.7414423470402980  0.3437935088914088
  0.6168672779975992  0.7461962175722121  0.3429831292888323
  0.8573933558533611  0.7548266931222543  0.3424453453223322
  0.1101833854324283  0.9095540277550711  0.3427607376172972
  0.3657109387839057  0.9083164290419106  0.3443038832982097
  0.6167008248220895  0.9134655359806843  0.3428679063339359
  0.8609274975859407  0.9200710554279965  0.3426195740060081
  0.9991151625482715  0.9985742574132885  0.3797893487207915
  0.2525380025251067  0.0000805108928574  0.3787285224299239
  0.4880968400788532  0.9979484530969174  0.3793006369162200
  0.7483700199082151  0.0000944490707724  0.3797787882787489
  0.9935099076657394  0.1629407072963929  0.3787205159987863
  0.2492680056325653  0.1698006123450142  0.3767501071839447
  0.4932166434717402  0.1653867897817136  0.3790705686119651
  0.7458582615345364  0.1661668920312707  0.3788480921567157
  0.0010139779597367  0.3285413635731658  0.3800947456127446
  0.2471928869265625  0.3364654373590810  0.3762901048219547
  0.4974599659607435  0.3392210953167449  0.3800157637975801
  0.7398079817412579  0.3344016569705914  0.3787370813921029
  0.9944401067909112  0.4923918296217167  0.3796172216149500
  0.2542743872764675  0.5006333537153722  0.3779004142122773
  0.4860556735777664  0.5014770796632249  0.3763632175193408
  0.7443990658688833  0.5033065388267985  0.3776514558179045
  0.9915960012299578  0.6599034853115953  0.3779631330046698
  0.2432413517449987  0.6641138939391453  0.3789205054257110
  0.4907374034148191  0.6626147081596869  0.3762321802338846
  0.7429957366722775  0.6675223990024932  0.3776826313297832
  0.9900384886840570  0.8320860072767999  0.3793548152386208
  0.2423242741963776  0.8320786646332863  0.3784214459294546
  0.4897606523718352  0.8287019530608859  0.3783372625734955
  0.7327776351404225  0.8346685676739085  0.3768885818610244
  0.1127244763608601  0.0824761999831551  0.4123707749852059
  0.3632884413305604  0.0817815325523696  0.4119272385499571
  0.6136575631499852  0.0895354658083392  0.4117958608228491
  0.8684068183539821  0.0825241465544195  0.4142964571661167
  0.1225006755059113  0.2466036236562203  0.4125842867724572
  0.3713315257778760  0.2532003766419351  0.4116068695455937
  0.6257853883493780  0.2522382096851530  0.4122312202103871
  0.8596977600931837  0.2491575937821224  0.4125398142663954
  0.1263502285645757  0.4120163058541664  0.4122619332361595
  0.3594484538625409  0.4147998489162248  0.4130486149141674
  0.6206461927658609  0.4208419129927705  0.4116229965443239
  0.8677580913816172  0.4167607516287717  0.4119461714575792
  0.1156924703340536  0.5768990953727382  0.4117697222352277
  0.3746161055486894  0.5827173202925024  0.4134238483695256
  0.6163123378849988  0.5806253205376635  0.4111049691519639
  0.8662990700863489  0.5804297343572600  0.4124726044892952
  0.1170376989318669  0.7498997379165999  0.4129172492894355
  0.3714709436150798  0.7446362983730026  0.4143886884736716
  0.6245413567158948  0.7483007884956692  0.4133548933700126
  0.8720185260113880  0.7419089205997409  0.4113577639767314
  0.1218421807095424  0.9135846749313572  0.4118398208751799
  0.3796408005053777  0.9104285188727275  0.4129645736355556
  0.6181523321390898  0.9165925777830992  0.4124696685913563
  0.8716331166960245  0.9106860618905301  0.4146583690176016
  0.0007722814687909  0.9995117034444121  0.4499443436064183
  0.2421944682273320  0.9994014424776978  0.4451680801145841
  0.4950258492552919  0.9997147199178116  0.4483457108234674
  0.7341059718727649  0.0039306461789010  0.4479412079052807
  0.9949430957725767  0.1687948944717661  0.4468221864261679
  0.2535651552651501  0.1725359179137058  0.4472009003497419
  0.5065897333650327  0.1670529439011759  0.4490100867856555
  0.7454576441878231  0.1728687711719559  0.4466209881395216
  0.9932909841333313  0.3337695787812365  0.4460213221224834
  0.2408445600314195  0.3385431035341853  0.4477186373785784
  0.4942701042136832  0.3301572954585765  0.4470088191954744
  0.7428341368901812  0.3380229760910041  0.4465628220477313
  0.9957554389453449  0.5010974113753690  0.4462921006131779
  0.2490728628916941  0.4986578543935138  0.4456939173492529
  0.5002362275002312  0.4991561228979222  0.4455844387232943
  0.7488249865496428  0.5018036657074774  0.4472953251244647
  0.0012032707720380  0.6652783471488064  0.4467397388995664
  0.2502745601495704  0.6625747515772957  0.4479818096061337
  0.5048486497372906  0.6630754024247736  0.4479497017676408
  0.7620670662211566  0.6659078550852584  0.4483365140318654
  0.9958900555243133  0.8316511919637577  0.4475641057647621
  0.2464247508864617  0.8312844752803201  0.4472548135146823
  0.4968247664534928  0.8285827632430980  0.4487435690373829
  0.7509903279466812  0.8329020839547070  0.4469379228218671
  0.1229668451842088  0.0917045895094901  0.4841854020022964
  0.3750505235207626  0.0887553387292854  0.4821367170795199
  0.6327364642997750  0.0785109179083889  0.4840367467057121
  0.8703210521549067  0.0886868145024948  0.4821138279990436
  0.1366036972718589  0.2558577993346134  0.4827148822199732
  0.3710939824384170  0.2514974998798110  0.4833800448170891
  0.6241991121576547  0.2534955367718084  0.4841519234481311
  0.8630746693597473  0.2616855173070078  0.4843099344215531
  0.1227378021228276  0.4132257128222392  0.4821877368855851
  0.3740803249532192  0.4234937087759150  0.4815792594020465
  0.6301625725841689  0.4208901243130896  0.4812900112727760
  0.8779008779012756  0.4176423611394924  0.4830922781711777
  0.1172136515217801  0.5754341794697950  0.4829062644988369
  0.3733601952028991  0.5843604421699524  0.4824005330103276
  0.6094997183526871  0.5887093448094447  0.4815215368710781
  0.8642042816135458  0.5873195420363615  0.4848847104292062
  0.1240161446619013  0.7446781363251915  0.4812169118755349
  0.3713357813187557  0.7505005038188131  0.4823498271765345
  0.6240185294766576  0.7509345178512561  0.4827510538010316
  0.8759754487683509  0.7566610355871148  0.4839940767396200
  0.1339871176018690  0.9147598794286509  0.4827298329155809
  0.3679141123134073  0.9194238796591989  0.4834420878322021
  0.6204026504446958  0.9153041079433848  0.4823540105734807
  0.8723573954244372  0.9171538833813671  0.4830534643280089
  0.0002718602058849  0.9982058330137704  0.5166379408341015
  0.2430696881330690  0.9981179061846959  0.5181194831391522
  0.4937802188550577  0.0010363658353754  0.5163525896139092
  0.7436232384499704  0.9962629483912409  0.5171595728219955
  0.9812575069804979  0.1630548012651474  0.5152537036934959
  0.2366257416469679  0.1717104759302117  0.5169591615742206
  0.4963865759432053  0.1633164975033310  0.5151435581204922
  0.7363280813484749  0.1716274265831785  0.5188126046421289
  0.9866477599725840  0.3340375641712257  0.5185916666858574
  0.2440441920755134  0.3350084499038601  0.5176531673956291
  0.4870574714373532  0.3352980068910227  0.5180650142728069
  0.7428576594102054  0.3364634135559399  0.5190778283535451
  0.9822494586593180  0.4973169260082955  0.5171947189911847
  0.2344474900942757  0.5004613974751564  0.5182818665138740
  0.4935420390904568  0.4992263629577707  0.5177147297146334
  0.7316523637020822  0.5004529628605354  0.5167003380454602
  0.9946876171201211  0.6652451445303598  0.5174104712156904
  0.2394521661886841  0.6623802185964180  0.5151157526814316
  0.4934375517256200  0.6648599829978181  0.5162243610864081
  0.7290725462086201  0.6660729624048756  0.5172366766062098
  0.9990028109723283  0.8315318603676189  0.5165447127297043
  0.2436028761996667  0.8257514309255072  0.5161217337002242
  0.4880725817309965  0.8364014316069586  0.5168638498371578
  0.7417665775843361  0.8334581991211749  0.5169846633337869
  0.1081105238386897  0.0794735811998137  0.5517785343677417
  0.3632810129725357  0.0852872186271227  0.5516503734516363
  0.6140782707487205  0.0844876005237154  0.5507553883103000
  0.8709634668528139  0.0856505630623161  0.5511389030371987
  0.1149074834201258  0.2478119873125451  0.5511512885242098
  0.3629128429234996  0.2446940198395779  0.5517887317826720
  0.6263091671626455  0.2501505256640684  0.5531272615249989
  0.8555718480715484  0.2545881947961703  0.5525379076191399
  0.1168586795879705  0.4113716331521573  0.5522639369787399
  0.3631439566479031  0.4204887898509710  0.5526514271523268
  0.6227642004502556  0.4189584248907821  0.5518436719665303
  0.8721599808533398  0.4182021636275692  0.5541898441100486
  0.1143336961613670  0.5825420337964005  0.5537232666176948
  0.3747930193781883  0.5786065226688208  0.5506066669688678
  0.6314174253968474  0.5813123869448518  0.5530576152857449
  0.8686997669598995  0.5780650417886832  0.5529951331978680
  0.1220030025374825  0.7476603825075259  0.5507473010627564
  0.3691521421861665  0.7497566317507989  0.5496442274104538
  0.6210188436966462  0.7521059188124752  0.5520164869623727
  0.8600859438886559  0.7420625368003897  0.5505886484877678
  0.1175831842176294  0.9164400625003637  0.5520880860536650
  0.3665582516953521  0.9152683218665203  0.5512420561139280
  0.6158649386660642  0.9177218307772961  0.5521714656976329
  0.8747004081108756  0.9191565497531684  0.5496418940925736
  0.9887468809907105  0.9974802048562168  0.5852587909223388
  0.2454927817932671  0.9949968764814088  0.5856199802566024
  0.4953637495169829  0.9968794596654789  0.5872950535526513
  0.7504641071239462  0.9946159217535495  0.5835324872044509
  0.9926381362364793  0.1642816706275880  0.5863059361264931
  0.2439410408834775  0.1591605483620029  0.5881149406550108
  0.4983515872184299  0.1645019265852810  0.5851498324036868
  0.7417505775670747  0.1620908357683035  0.5867881908652564
  0.9905700971394893  0.3373174872155786  0.5875754353355589
  0.2540996048406257  0.3368454051086971  0.5849500517807371
  0.4963865791044810  0.3323448892583443  0.5858256552156433
  0.7505325370479454  0.3318415492068993  0.5872501244512023
  0.9900927882281749  0.4990805153890747  0.5889098815527305
  0.2427668781593368  0.4978476184839522  0.5884164857743102
  0.4975994408649527  0.5014058310823231  0.5855769614014719
  0.7375739086873239  0.4984898319992652  0.5858703143734516
  0.9815074638589110  0.6683146153965822  0.5893770581407907
  0.2561086594725239  0.6614924547257530  0.5850395376458195
  0.5009574290276575  0.6645480631587901  0.5878863313607994
  0.7434917645256860  0.6638247236265826  0.5883688486325696
  0.0014073402822561  0.8275646413085695  0.5853918675599630
  0.2531027225665525  0.8265248898722035  0.5861528077818434
  0.4869120503558051  0.8261832651878720  0.5859177964375135
  0.7478828906195716  0.8337284651915695  0.5876775922476298
  0.1181064882226366  0.0786124915244173  0.6209468862486318
  0.3638933271234208  0.0742425389604691  0.6207546184862949
  0.6142696664952751  0.0857417509360943  0.6207614799806080
  0.8682050035622382  0.0846419185437455  0.6186698694314998
  0.1199636573835505  0.2569142840903851  0.6210511135433165
  0.3681030772418765  0.2448182336776767  0.6215515722297056
  0.6164119827651930  0.2588057428770014  0.6218689211342507
  0.8758802934633252  0.2475077872765326  0.6195127421873465
  0.1197438491278646  0.4158105875876430  0.6214198039439367
  0.3738733383322952  0.4073072582967612  0.6209599473858916
  0.6198042283329599  0.4120048893214729  0.6225262461912848
  0.8658162847005926  0.4189420392826619  0.6215220252915330
  0.1305094904734574  0.5884060207812993  0.6204495657588112
  0.3718702557990952  0.5734937130603939  0.6243445931098535
  0.6135340191138923  0.5754746881484394  0.6222556691296290
  0.8629300992308586  0.5868479030622140  0.6227760965252642
  0.1197510321198436  0.7508251873327794  0.6200684664311282
  0.3714428803432739  0.7411620344875516  0.6226514100390190
  0.6242185317499604  0.7430365490113573  0.6211914148527597
  0.8774884469224844  0.7475598956474343  0.6223988861828360
  0.1169410192184870  0.9112150380149586  0.6204052298406069
  0.3636712436649248  0.9055670413292987  0.6211069576179895
  0.6168629902216480  0.9145433446856686  0.6199705305444709
  0.8626346117716537  0.9166435120636365  0.6204022652989494
  0.9991115867958626  0.9961515626161628  0.6568110686648794
  0.2457805395874999  0.9970307673307559  0.6566966643346461
  0.4948456994976311  0.9969984705186548  0.6540304215687414
  0.7328603922471970  0.0024702541250150  0.6561125650741602
  0.9921869892859263  0.1650734071826605  0.6555667248077697
  0.2474337764770596  0.1582497828228142  0.6538727674485401
  0.4950847899257695  0.1613118407822896  0.6531453801283575
  0.7429877355950083  0.1641618017635835  0.6522044744190012
  0.9958185212626915  0.3258321747976396  0.6570143053229955
  0.2378648896338760  0.3313988907027721  0.6587657176795290
  0.4983827069085081  0.3279574164460115  0.6583055609904633
  0.7516317722329831  0.3300061048704421  0.6555839815721001
  0.9983880040044610  0.5018646813655678  0.6547918237041230
  0.2374069522466868  0.4945309706619412  0.6589058682947595
  0.4960974561345495  0.4953685065375453  0.6569755415072436
  0.7499828110162667  0.4972241160968949  0.6566450365261858
  0.0024685699449662  0.6700155254302729  0.6547170580315438
  0.2409735081061157  0.6704907369297786  0.6555261543958437
  0.4892196412987744  0.6652051327363040  0.6570099356460872
  0.7426241831046667  0.6686098702085488  0.6577242548865314
  0.9862858513058157  0.8322133997168280  0.6560551703934436
  0.2490914557709800  0.8283051712791831  0.6586822478511607
  0.4991449294784829  0.8301551644390841  0.6533920048202262
  0.7467897842294917  0.8331733264542152  0.6577467759735001
 
  0.00000000E+00  0.00000000E+00  0.00000000E+00
  0.00000000E+00  0.00000000E+00  0.00000000E+00
  0.00000000E+00  0.00000000E+00  0.00000000E+00
  0.00000000E+00  0.00000000E+00  0.00000000E+00
  0.00000000E+00  0.00000000E+00  0.00000000E+00
  0.00000000E+00  0.00000000E+00  0.00000000E+00
  0.00000000E+00  0.00000000E+00  0.00000000E+00
  0.00000000E+00  0.00000000E+00  0.00000000E+00
  0.00000000E+00  0.00000000E+00  0.00000000E+00
  0.00000000E+00  0.00000000E+00  0.00000000E+00
  0.00000000E+00  0.00000000E+00  0.00000000E+00
  0.00000000E+00  0.00000000E+00  0.00000000E+00
  0.00000000E+00  0.00000000E+00  0.00000000E+00
  0.00000000E+00  0.00000000E+00  0.00000000E+00
  0.00000000E+00  0.00000000E+00  0.00000000E+00
  0.00000000E+00  0.00000000E+00  0.00000000E+00
  0.00000000E+00  0.00000000E+00  0.00000000E+00
  0.00000000E+00  0.00000000E+00  0.00000000E+00
  0.00000000E+00  0.00000000E+00  0.00000000E+00
  0.00000000E+00  0.00000000E+00  0.00000000E+00
  0.00000000E+00  0.00000000E+00  0.00000000E+00
  0.00000000E+00  0.00000000E+00  0.00000000E+00
  0.00000000E+00  0.00000000E+00  0.00000000E+00
  0.00000000E+00  0.00000000E+00  0.00000000E+00
  0.00000000E+00  0.00000000E+00  0.00000000E+00
  0.00000000E+00  0.00000000E+00  0.00000000E+00
  0.00000000E+00  0.00000000E+00  0.00000000E+00
  0.00000000E+00  0.00000000E+00  0.00000000E+00
  0.00000000E+00  0.00000000E+00  0.00000000E+00
  0.00000000E+00  0.00000000E+00  0.00000000E+00
  0.00000000E+00  0.00000000E+00  0.00000000E+00
  0.00000000E+00  0.00000000E+00  0.00000000E+00
  0.00000000E+00  0.00000000E+00  0.00000000E+00
  0.00000000E+00  0.00000000E+00  0.00000000E+00
  0.00000000E+00  0.00000000E+00  0.00000000E+00
  0.00000000E+00  0.00000000E+00  0.00000000E+00
  0.00000000E+00  0.00000000E+00  0.00000000E+00
  0.00000000E+00  0.00000000E+00  0.00000000E+00
  0.00000000E+00  0.00000000E+00  0.00000000E+00
  0.00000000E+00  0.00000000E+00  0.00000000E+00
  0.00000000E+00  0.00000000E+00  0.00000000E+00
  0.00000000E+00  0.00000000E+00  0.00000000E+00
  0.00000000E+00  0.00000000E+00  0.00000000E+00
  0.00000000E+00  0.00000000E+00  0.00000000E+00
  0.00000000E+00  0.00000000E+00  0.00000000E+00
  0.00000000E+00  0.00000000E+00  0.00000000E+00
  0.00000000E+00  0.00000000E+00  0.00000000E+00
  0.00000000E+00  0.00000000E+00  0.00000000E+00
  0.00000000E+00  0.00000000E+00  0.00000000E+00
  0.00000000E+00  0.00000000E+00  0.00000000E+00
  0.00000000E+00  0.00000000E+00  0.00000000E+00
  0.00000000E+00  0.00000000E+00  0.00000000E+00
  0.00000000E+00  0.00000000E+00  0.00000000E+00
  0.00000000E+00  0.00000000E+00  0.00000000E+00
  0.00000000E+00  0.00000000E+00  0.00000000E+00
  0.00000000E+00  0.00000000E+00  0.00000000E+00
  0.00000000E+00  0.00000000E+00  0.00000000E+00
  0.00000000E+00  0.00000000E+00  0.00000000E+00
  0.00000000E+00  0.00000000E+00  0.00000000E+00
  0.00000000E+00  0.00000000E+00  0.00000000E+00
  0.00000000E+00  0.00000000E+00  0.00000000E+00
  0.00000000E+00  0.00000000E+00  0.00000000E+00
  0.00000000E+00  0.00000000E+00  0.00000000E+00
  0.00000000E+00  0.00000000E+00  0.00000000E+00
  0.00000000E+00  0.00000000E+00  0.00000000E+00
  0.00000000E+00  0.00000000E+00  0.00000000E+00
  0.00000000E+00  0.00000000E+00  0.00000000E+00
  0.00000000E+00  0.00000000E+00  0.00000000E+00
  0.00000000E+00  0.00000000E+00  0.00000000E+00
  0.00000000E+00  0.00000000E+00  0.00000000E+00
  0.00000000E+00  0.00000000E+00  0.00000000E+00
  0.00000000E+00  0.00000000E+00  0.00000000E+00
  0.00000000E+00  0.00000000E+00  0.00000000E+00
  0.00000000E+00  0.00000000E+00  0.00000000E+00
  0.00000000E+00  0.00000000E+00  0.00000000E+00
  0.00000000E+00  0.00000000E+00  0.00000000E+00
  0.00000000E+00  0.00000000E+00  0.00000000E+00
  0.00000000E+00  0.00000000E+00  0.00000000E+00
  0.00000000E+00  0.00000000E+00  0.00000000E+00
  0.00000000E+00  0.00000000E+00  0.00000000E+00
  0.00000000E+00  0.00000000E+00  0.00000000E+00
  0.00000000E+00  0.00000000E+00  0.00000000E+00
  0.00000000E+00  0.00000000E+00  0.00000000E+00
  0.00000000E+00  0.00000000E+00  0.00000000E+00
  0.00000000E+00  0.00000000E+00  0.00000000E+00
  0.00000000E+00  0.00000000E+00  0.00000000E+00
  0.00000000E+00  0.00000000E+00  0.00000000E+00
  0.00000000E+00  0.00000000E+00  0.00000000E+00
  0.00000000E+00  0.00000000E+00  0.00000000E+00
  0.00000000E+00  0.00000000E+00  0.00000000E+00
  0.00000000E+00  0.00000000E+00  0.00000000E+00
  0.00000000E+00  0.00000000E+00  0.00000000E+00
  0.00000000E+00  0.00000000E+00  0.00000000E+00
  0.00000000E+00  0.00000000E+00  0.00000000E+00
  0.00000000E+00  0.00000000E+00  0.00000000E+00
  0.00000000E+00  0.00000000E+00  0.00000000E+00
  0.00000000E+00  0.00000000E+00  0.00000000E+00
  0.00000000E+00  0.00000000E+00  0.00000000E+00
  0.00000000E+00  0.00000000E+00  0.00000000E+00
  0.00000000E+00  0.00000000E+00  0.00000000E+00
  0.00000000E+00  0.00000000E+00  0.00000000E+00
  0.00000000E+00  0.00000000E+00  0.00000000E+00
  0.00000000E+00  0.00000000E+00  0.00000000E+00
  0.00000000E+00  0.00000000E+00  0.00000000E+00
  0.00000000E+00  0.00000000E+00  0.00000000E+00
  0.00000000E+00  0.00000000E+00  0.00000000E+00
  0.00000000E+00  0.00000000E+00  0.00000000E+00
  0.00000000E+00  0.00000000E+00  0.00000000E+00
  0.00000000E+00  0.00000000E+00  0.00000000E+00
  0.00000000E+00  0.00000000E+00  0.00000000E+00
  0.00000000E+00  0.00000000E+00  0.00000000E+00
  0.00000000E+00  0.00000000E+00  0.00000000E+00
  0.00000000E+00  0.00000000E+00  0.00000000E+00
  0.00000000E+00  0.00000000E+00  0.00000000E+00
  0.00000000E+00  0.00000000E+00  0.00000000E+00
  0.00000000E+00  0.00000000E+00  0.00000000E+00
  0.00000000E+00  0.00000000E+00  0.00000000E+00
  0.00000000E+00  0.00000000E+00  0.00000000E+00
  0.00000000E+00  0.00000000E+00  0.00000000E+00
  0.00000000E+00  0.00000000E+00  0.00000000E+00
  0.00000000E+00  0.00000000E+00  0.00000000E+00
  0.00000000E+00  0.00000000E+00  0.00000000E+00
  0.00000000E+00  0.00000000E+00  0.00000000E+00
  0.00000000E+00  0.00000000E+00  0.00000000E+00
  0.00000000E+00  0.00000000E+00  0.00000000E+00
  0.00000000E+00  0.00000000E+00  0.00000000E+00
  0.00000000E+00  0.00000000E+00  0.00000000E+00
  0.00000000E+00  0.00000000E+00  0.00000000E+00
  0.00000000E+00  0.00000000E+00  0.00000000E+00
  0.00000000E+00  0.00000000E+00  0.00000000E+00
  0.00000000E+00  0.00000000E+00  0.00000000E+00
  0.00000000E+00  0.00000000E+00  0.00000000E+00
  0.00000000E+00  0.00000000E+00  0.00000000E+00
  0.00000000E+00  0.00000000E+00  0.00000000E+00
  0.00000000E+00  0.00000000E+00  0.00000000E+00
  0.00000000E+00  0.00000000E+00  0.00000000E+00
  0.00000000E+00  0.00000000E+00  0.00000000E+00
  0.00000000E+00  0.00000000E+00  0.00000000E+00
  0.00000000E+00  0.00000000E+00  0.00000000E+00
  0.00000000E+00  0.00000000E+00  0.00000000E+00
  0.00000000E+00  0.00000000E+00  0.00000000E+00
  0.00000000E+00  0.00000000E+00  0.00000000E+00
  0.00000000E+00  0.00000000E+00  0.00000000E+00
  0.00000000E+00  0.00000000E+00  0.00000000E+00
  0.00000000E+00  0.00000000E+00  0.00000000E+00
  0.00000000E+00  0.00000000E+00  0.00000000E+00
  0.00000000E+00  0.00000000E+00  0.00000000E+00
  0.00000000E+00  0.00000000E+00  0.00000000E+00
  0.00000000E+00  0.00000000E+00  0.00000000E+00
  0.00000000E+00  0.00000000E+00  0.00000000E+00
  0.00000000E+00  0.00000000E+00  0.00000000E+00
  0.00000000E+00  0.00000000E+00  0.00000000E+00
  0.00000000E+00  0.00000000E+00  0.00000000E+00
  0.00000000E+00  0.00000000E+00  0.00000000E+00
  0.00000000E+00  0.00000000E+00  0.00000000E+00
  0.00000000E+00  0.00000000E+00  0.00000000E+00
  0.00000000E+00  0.00000000E+00  0.00000000E+00
  0.00000000E+00  0.00000000E+00  0.00000000E+00
  0.00000000E+00  0.00000000E+00  0.00000000E+00
  0.00000000E+00  0.00000000E+00  0.00000000E+00
  0.00000000E+00  0.00000000E+00  0.00000000E+00
  0.00000000E+00  0.00000000E+00  0.00000000E+00
  0.00000000E+00  0.00000000E+00  0.00000000E+00
  0.00000000E+00  0.00000000E+00  0.00000000E+00
  0.00000000E+00  0.00000000E+00  0.00000000E+00
  0.00000000E+00  0.00000000E+00  0.00000000E+00
  0.00000000E+00  0.00000000E+00  0.00000000E+00
  0.00000000E+00  0.00000000E+00  0.00000000E+00
  0.00000000E+00  0.00000000E+00  0.00000000E+00
  0.00000000E+00  0.00000000E+00  0.00000000E+00
  0.00000000E+00  0.00000000E+00  0.00000000E+00
  0.00000000E+00  0.00000000E+00  0.00000000E+00
  0.00000000E+00  0.00000000E+00  0.00000000E+00
  0.00000000E+00  0.00000000E+00  0.00000000E+00
  0.00000000E+00  0.00000000E+00  0.00000000E+00
  0.00000000E+00  0.00000000E+00  0.00000000E+00
  0.00000000E+00  0.00000000E+00  0.00000000E+00
  0.00000000E+00  0.00000000E+00  0.00000000E+00
  0.00000000E+00  0.00000000E+00  0.00000000E+00
  0.00000000E+00  0.00000000E+00  0.00000000E+00
  0.00000000E+00  0.00000000E+00  0.00000000E+00
  0.00000000E+00  0.00000000E+00  0.00000000E+00
  0.00000000E+00  0.00000000E+00  0.00000000E+00
  0.00000000E+00  0.00000000E+00  0.00000000E+00
  0.00000000E+00  0.00000000E+00  0.00000000E+00
  0.00000000E+00  0.00000000E+00  0.00000000E+00
  0.00000000E+00  0.00000000E+00  0.00000000E+00
  0.00000000E+00  0.00000000E+00  0.00000000E+00
  0.00000000E+00  0.00000000E+00  0.00000000E+00
  0.00000000E+00  0.00000000E+00  0.00000000E+00
  0.00000000E+00  0.00000000E+00  0.00000000E+00
  0.00000000E+00  0.00000000E+00  0.00000000E+00
  0.00000000E+00  0.00000000E+00  0.00000000E+00
  0.00000000E+00  0.00000000E+00  0.00000000E+00
  0.00000000E+00  0.00000000E+00  0.00000000E+00
  0.00000000E+00  0.00000000E+00  0.00000000E+00
  0.00000000E+00  0.00000000E+00  0.00000000E+00
  0.00000000E+00  0.00000000E+00  0.00000000E+00
  0.00000000E+00  0.00000000E+00  0.00000000E+00
  0.00000000E+00  0.00000000E+00  0.00000000E+00
  0.00000000E+00  0.00000000E+00  0.00000000E+00
  0.00000000E+00  0.00000000E+00  0.00000000E+00
  0.00000000E+00  0.00000000E+00  0.00000000E+00
  0.00000000E+00  0.00000000E+00  0.00000000E+00
  0.00000000E+00  0.00000000E+00  0.00000000E+00
  0.00000000E+00  0.00000000E+00  0.00000000E+00
  0.00000000E+00  0.00000000E+00  0.00000000E+00
  0.00000000E+00  0.00000000E+00  0.00000000E+00
  0.00000000E+00  0.00000000E+00  0.00000000E+00
  0.00000000E+00  0.00000000E+00  0.00000000E+00
  0.00000000E+00  0.00000000E+00  0.00000000E+00
  0.00000000E+00  0.00000000E+00  0.00000000E+00
  0.00000000E+00  0.00000000E+00  0.00000000E+00
  0.00000000E+00  0.00000000E+00  0.00000000E+00
  0.00000000E+00  0.00000000E+00  0.00000000E+00
  0.00000000E+00  0.00000000E+00  0.00000000E+00
  0.00000000E+00  0.00000000E+00  0.00000000E+00
  0.00000000E+00  0.00000000E+00  0.00000000E+00
  0.00000000E+00  0.00000000E+00  0.00000000E+00
  0.00000000E+00  0.00000000E+00  0.00000000E+00
  0.00000000E+00  0.00000000E+00  0.00000000E+00
  0.00000000E+00  0.00000000E+00  0.00000000E+00
  0.00000000E+00  0.00000000E+00  0.00000000E+00
  0.00000000E+00  0.00000000E+00  0.00000000E+00
  0.00000000E+00  0.00000000E+00  0.00000000E+00
  0.00000000E+00  0.00000000E+00  0.00000000E+00
  0.00000000E+00  0.00000000E+00  0.00000000E+00
  0.00000000E+00  0.00000000E+00  0.00000000E+00
  0.00000000E+00  0.00000000E+00  0.00000000E+00
  0.00000000E+00  0.00000000E+00  0.00000000E+00
  0.00000000E+00  0.00000000E+00  0.00000000E+00
  0.00000000E+00  0.00000000E+00  0.00000000E+00
  0.00000000E+00  0.00000000E+00  0.00000000E+00
  0.00000000E+00  0.00000000E+00  0.00000000E+00
  0.00000000E+00  0.00000000E+00  0.00000000E+00
  0.00000000E+00  0.00000000E+00  0.00000000E+00
  0.00000000E+00  0.00000000E+00  0.00000000E+00
  0.00000000E+00  0.00000000E+00  0.00000000E+00
  0.00000000E+00  0.00000000E+00  0.00000000E+00
  0.00000000E+00  0.00000000E+00  0.00000000E+00
