INCAR created by Atomic Simulation Environment
 NPAR = 16
 NSIM = 4
