Al 
 1.0000000000000000
    11.4551298552220704    0.0000000000000000    0.0000000000000000
     0.0000000000000000   17.1826947828331065    0.0000000000000000
     0.0000000000000000    0.0000000000000000   58.2249999999999943
 240
Cartesian
  1.3098456351289793  1.2894144227196380 20.0846033140378815
  4.1051095483129512  1.4040888043975794 19.8028640328455481
  7.0447585611097550  1.4250775942471428 20.1709202922506989
  9.9331172673314239  1.4546349723338177 19.8634299279768776
  1.2632954163744667  4.3158400073348604 19.9837910073617593
  4.2862898269048904  4.3304579114989030 20.0496084113603210
  7.0433561435415957  4.2780706044673007 19.9924115331938559
  9.9933540263122183  4.3384752272805320 20.0938324316111903
  1.3106658291413087  7.2524597613098507 19.9430652008106044
  4.2152641867912424  7.1526468709457385 19.9090981490696670
  6.9855447299744968  7.0888236688328243 19.9703016287538802
  9.8810271174978581  7.1173456046268848 19.9661042224408298
  1.3264790335566230 10.1355935381607267 19.9373595140557498
  4.0467085384150394 10.0051681847840044 19.9366034410378390
  7.0031805859308855 10.0925072773519844 19.9117820588909353
  9.8332351738990837 10.1048669197721015 19.9813429688329940
  1.3142509092539740 12.9358212414669644 19.9846020525232966
  4.0750841189739910 12.7399775482608728 20.0173770552024415
  7.0662947728998509 12.8216618546478962 19.9701927028420911
  9.8215522283048546 12.9699566818549457 19.9388802313926199
  1.2621649880164816 15.6285892474118580 19.9572439477669654
  4.1892662932448150 15.6073239664600312 20.0470936050381958
  7.0643880301595674 15.6957994993931695 19.9634838462932223
  9.8620362807783213 15.8093001239383746 19.9490246964996381
 -0.0101359279103177 -0.0244980997063330 22.1132348292682330
  2.8928556123035229  0.0013833940987013 22.0514682184821424
  5.5912126850268020 -0.0352511042683729 22.0847795844470056
  8.5726757578036956  0.0016228895555795 22.1126199475302556
 -0.0743448504613516  2.7997604411728894 22.0510020440295058
  2.8553973732732225  2.9176320958625568 21.9362749907850549
  5.6498606977255506  2.8417907299317182 22.0713838574317869
  8.5439032394683245  2.8551949887853638 22.0584301658249089
  0.0116152491991306  5.6452259738135613 22.1310165633020262
  2.8316266190310113  5.7813829151135616 21.9094913532583710
  5.6984685078546651  5.8287325447260159 22.1264178471143005
  8.4745964987758935  5.7459216065993726 22.0519665640552063
 -0.0636892986912925  8.4606185219507406 22.1032127285305258
  2.9127461251089870  8.6022301149974041 22.0032516175098429
  5.5678308577007050  8.6167276004397344 21.9137483400637159
  8.5271879636340557  8.6481626388649691 21.9887560149973567
 -0.0962688972139737 11.3389201742369288 22.0069034191967354
  2.7863612703986997 11.4112663405951817 22.0626464284118597
  5.6214606809312118 11.3855062889239740 21.9061186941180068
  8.5111126454573132 11.4698336427643603 21.9905712091764265
 -0.1141104056783542 14.2974798961035514 22.0879341172686772
  2.7758560279919444 14.2973537297010687 22.0335886892424000
  5.6102718708976775 14.2393327253829192 22.0286871133417250
  8.3940629655360794 14.3418552431652913 21.9443376788581830
  1.2912735145755545  1.4171633711585108 24.0102883735135819
  4.1615162703427897  1.4052271127197158 23.9844634645713874
  7.0295270725222556  1.5384605812234227 23.9768139964104137
  9.9477128714051020  1.4179872224583681 24.1224112184973407
  1.4032611452726040  4.2373147976254524 24.0227200973261965
  4.2536508471233025  4.3506647907367295 23.9658099792921355
  7.1684528850426803  4.3341321695882487 24.0021627967497082
  9.8479494781110066  4.2811988867832760 24.0201306856609662
  1.4473582754442167  7.0795504290425733 24.0039510626755543
  4.1175287152542381  7.1273791998927356 24.0497556033772248
  7.1095827322821314  7.2311981427784016 23.9667489737932229
  9.9402816196960924  7.1610727927012512 23.9855658331176009
  1.3252722709480065  9.9126810762823077 23.9752920771461255
  4.2912761349178092 10.0126538592564245 24.0716035713156806
  7.0599378618481374  9.9767076659832661 23.9365868288732706
  9.9235683412972779  9.9733469683416800 24.0162173963891519
  1.3406820392209198 12.8852983143474873 24.0421068398774267
  4.2552478965526266 12.7948582391619539 24.1277813863794321
  7.1542023411371591 12.8578240544744133 24.0675886664688967
  9.9890854516198093 12.7479945393264789 23.9513058075452214
  1.3957180018712587 15.6978466276193327 23.9793735704574615
  4.3488346681295722 15.6436153613769307 24.0448622999300596
  7.0810152349616597 15.7495305042571783 24.0160464537317537
  9.9846705378648970 15.6480406444452917 24.1434835360496827
  0.0088465845097574 -0.0083902506782015 26.1980094064835747
  2.7743690837605737 -0.0102848312156553 25.9199114646715891
  5.6705853849109671 -0.0049018805798337 26.1049290126963207
  8.4092792352965606  0.0675390935913068 26.0813768302847642
 -0.0579274945905385  2.9003511526088857 26.0162218046636049
  2.9046217803218362  2.9646320165872071 26.0382724228636633
  5.8030511790187544  2.8704197476275932 26.1436123030947734
  8.5393141157394332  2.9703513325311932 26.0045070344234972
 -0.0768526479534297  5.7350607999927119 25.9695914805816059
  2.7589057100837033  5.8170828188609445 26.0684176613678673
  5.6619282273218836  5.6729920381903538 26.0270884976563899
  8.5092614989688098  5.8081456277566081 26.0011203137293165
 -0.0486219980595014  8.6102038761307256 25.9853575582021641
  2.8531619878363017  8.5682857131062420 25.9505283376603799
  5.7302709443015365  8.5768473087373884 25.9441539446638707
  8.5778874597611043  8.6223392287584577 26.0437703053721492
  0.0137836229446862 11.4312747846856038 26.0114212974271339
  2.8669275859719527 11.3848197271641833 26.0837408643172566
  5.7831068399741987 11.3934222578690818 26.0818713854207331
  8.7295772019514324 11.4420914274210030 26.1043935295051703
 -0.0470799476667681 14.2900085972926139 26.0594200581532363
  2.8228275209451814 14.2837074164492801 26.0414115168924418
  5.6911922150151417 14.2372847231225954 26.1280943072017600
  8.6026917266450091 14.3115022925793927 26.0229605563032287
  1.4086011794720903  1.5757319717265428 28.1916950315835670
  4.2962524491993905  1.5250558957322240 28.0724103519552237
  7.2480783626880072  1.3490291395399459 28.1830395769398727
  9.9696406681679814  1.5238784648580748 28.0710776352442117
  1.5648130909526021  4.3963264737740371 28.1060740172580559
  4.2509297573235383  4.3214047790803551 28.1448031094750135
  7.1502818852802976  4.3557364371603997 28.1897457427675739
  9.8866324122687921  4.4964623729741371 28.1989459316950075
  1.4059774614615110  7.1003312998432095 28.0753809801631178
  4.2851386986228066  7.2767631403465565 28.0399523786839744
  7.2185940988524235  7.2320265431804804 28.0231109063575872
 10.0564685563725824  7.1762212198416151 28.1280478965167831
  1.3426975989867727  9.8875098734394360 28.1172172504448739
  4.2768895188202833 10.0408871209677422 28.0877710345261384
  6.9818984204512713 10.1156129876623542 28.0365914843183432
  9.8995722673220747 10.0917324308040648 28.2324122647406099
  1.4206210412460611 12.7955771279246928 28.0188546939530347
  4.2536995948966982 12.8956210914811926 28.0848186873535255
  7.1482132872197992 12.9030786221320941 28.1081801075650972
 10.0344125156279027 13.0014756285557773 28.1805551181642464
  1.5348398310563320 15.7180398078036720 28.1069445215096003
  4.2145039321188742 15.7981799002322827 28.1484155640297580
  7.1067929233679292 15.7273911202645476 28.0850622656410671
  9.9929672447502025 15.7591752470321218 28.1257879604983181
  0.0031141939609113 -0.0308286237137832 30.0812441050656538
  2.7843948414326483 -0.0323394435810078 30.1675069057769640
  5.6563165269246340  0.0178075578325929 30.0646295302700146
  8.5183007598051645 -0.0642126171809756 30.1116161275608469
 -0.2146976913490271  2.8017208830145890 30.0006468975537892
  2.7105785976542771  2.9504486989237870 30.0999471826590650
  5.6861726858184785  2.8062175296010703 29.9942336715658371
  8.4347337878933395  2.9490216873418729 30.2078639052881144
 -0.1529516433721222  5.7396655111552377 30.1949997927841842
  2.7955579106377662  5.7563479443680556 30.1403556716106955
  5.5793065822709949  5.7613233137007098 30.1643354560339958
  8.5095309524902714  5.7813481407218177 30.2233065558851877
 -0.2033347560579649  8.5452449499373486 30.1136625132618079
  2.6856264432608574  8.5992754434057819 30.1769616777702723
  5.6535881467922602  8.5780542222472853 30.1439401376345728
  8.3811728350874937  8.5991305139971388 30.0848771826968182
 -0.0608540357296819 11.4307042742268337 30.1262246865334014
  2.7429556578055556 11.3814771263285426 29.9926146998763201
  5.6523912304598367 11.4240861611711342 30.0571634242561743
  8.3516206906971018 11.4449284161004226 30.1161054953965710
 -0.0114229298021701 14.2879581588981690 30.0758158986870967
  2.7905025799727396 14.1886348040806656 30.0511879446957479
  5.5909348025020469 14.3716305152270643 30.0943976567687059
  8.4970324684922449 14.3210578497489003 30.1014320226096466
  1.2384200892882544  1.3655702890550736 32.1273051635616014
  4.1614311775369872  1.4654642465466077 32.1198429942214432
  7.0343463326968125  1.4517246527329548 32.0677324843671343
  9.9769996119534206  1.4717074830776271 32.0900626293408280
  1.3162801439143228  4.2580777415187416 32.0907837743222970
  4.1572137418165358  4.2045026580879252 32.1278989080462267
  7.1744528393641298  4.2982601322509515 32.2058348022929977
  9.8006866201319358  4.3745112464950129 32.1715196711246207
  1.3386313493899800  7.0684732147691056 32.1555677305872365
  4.1598611795408784  7.2251305356120774 32.1781293459443489
  7.1338447853411902  7.1988347415948688 32.1310978002511973
  9.9907058352030287  7.1858401351329713 32.2677036733076150
  1.3097073363559546 10.0096419648943922 32.2405371988152112
  4.2933027058079043  9.9420192783747332 32.0590731842624095
  7.2329686007708478  9.9885133183535864 32.2017796500123694
  9.9510686357267648  9.9327151776805866 32.1981416304457042
  1.3975602367938336 12.8468201538430122 32.0672616043790129
  4.2286857250759500 12.8828393647789561 32.0030351409738074
  7.1138514970849691 12.9232064473169626 32.1411599533841610
  9.8523961738957802 12.7506340796159705 32.0580240582003455
  1.3469306440034301 15.7469098807042034 32.1453288104746235
  4.1989723726734081 15.7267762190282401 32.0960687172335213
  7.0548128456981720 15.7689341137890526 32.1501835902445094
 10.0198067593258546 15.7935864520506382 32.0028992835402519
 -0.1289059395276725 -0.0432968708709351 34.0766931014533299
  2.8121516939615607 -0.0859671443807167 34.0977233504408375
  5.6744560762867442 -0.0536192921255454 34.1952544931032989
  8.5966637987880805 -0.0925129731956437 33.9761790674790802
 -0.0843311053875936  2.8228018048077326 34.1376631309651515
  2.7943763003382913  2.7348071239725953 34.2429924196381208
  5.7086821451431327  2.8265863957028832 34.0703489917046980
  8.4968491862168314  2.7851573581010376 34.1657424131297063
 -0.1080207617892486  5.7960234277374383 34.2115797224129565
  2.9107439696100110  5.7879117849825139 34.0587167649333225
  5.6861727220313201  5.7105807947605740 34.1096987749309974
  8.5974476724535069  5.7019320562847016 34.1926384961712415
 -0.1134883973494063  8.5755481679895365 34.2892778534078531
  2.7809261138620385  8.5543636767700928 34.2605498842090412
  5.7000662109939615  8.6155033578203177 34.0952185776005336
  8.4490049018369895  8.5653986355891778 34.1122990543940574
 -0.2118344028485904 11.4834460552659774 34.3164792102477136
  2.9337579513046221 11.3662229506997132 34.0639270794277920
  5.7385324014500272 11.4187265377803655 34.2296816434823867
  8.5167947089298881 11.4062976153741591 34.2577762116312527
  0.0161212656837077 14.2197906446699509 34.0844414886788627
  2.8993245537100969 14.2019249130888667 34.1287472330977693
  5.5776407648981907 14.1960548804076119 34.1150636975742856
  8.5670956285460402 14.3257017491465852 34.2175278086183496
  1.3529251593345983  1.3507744479821424 36.1546324518264512
  4.1684453156476122  1.2756868868602913 36.1434376613644659
  7.0365387958273020  1.4732743364805609 36.1438371718709988
  9.9454010567589624  1.4543762521706143 36.0220531476491033
  1.3741992732359416  4.4144797288751629 36.1607010860596034
  4.2166685499125158  4.2066369865558686 36.1898402930745888
  7.0610793068902229  4.4469800878998864 36.2083179330417053
 10.0333224992523693  4.2528507651469951 36.0711294138583867
  1.3716813411238322  7.1447464139889387 36.1821680846356344
  4.2827676400018513  6.9986363021457665 36.1553929365433859
  7.0999379203697748  7.0793542622457535 36.2465906844877068
  9.9180379720112430  7.1985531926916533 36.1881199225994266
  1.4950031607123062 10.1104010634664547 36.1256759663069005
  4.2598220694733184  9.8541674313903762 36.3524639338210136
  7.0281118595459304  9.8882059217006901 36.2308363350728513
  9.8849763426691872 10.0836284022636615 36.2611382201836392
  1.3717636232296619 12.9012000292026396 36.1034864579523571
  4.2549264281299388 12.7351610232232808 36.2538783495220045
  7.1505043392318663 12.7673702341517235 36.1688701298018103
 10.0517441059541941 12.8450935187963786 36.2391751479955175
  1.3395745605498008 15.6571298797387133 36.1230945074692329
  4.1659013207918445 15.5600820765545080 36.1639526073075714
  7.0662456558695430 15.7143191574051642 36.0977841409518376
  9.8815914954534083 15.7504056924536613 36.1229218970311763
 -0.0101768886184978 -0.0661265249573326 38.2428244730127034
  2.8154479968613568 -0.0510194186948849 38.2361632808848739
  5.6685217460435995 -0.0515743649596358 38.0809212958398717
  8.3950109589406168  0.0424456226661654 38.2021541014430284
 -0.0894990522899620  2.8364059723819754 38.1703725519325232
  2.8343860401127006  2.7191577176940251 38.0717418846912494
  5.6712605579450059  2.7717721250189906 38.0293897579736964
  8.5110209920782207  2.8207421347036310 37.9746055230462929
 -0.0478993819226781  5.5986748099745247 38.2546579274312606
  2.7247731987540975  5.6943259903152361 38.3566339118907322
  5.7090386252340490  5.6351921885582721 38.3298412886695203
  8.6100395542395347  5.6703941764604364 38.1713773270355006
 -0.0184656234550337  8.6233876421883622 38.1252539351724593
  2.7195274665182745  8.4973747295422832 38.3647941814621660
  5.6828607808666325  8.5117658528624638 38.2524009042591544
  8.5911504893758206  8.5436502255569202 38.2331572517373530
  0.0282777892763238 11.5126722732279738 38.1209007038866048
  2.7603828270239728 11.5208376873812526 38.1680103396980073
  5.6040745188026317 11.4300167637819143 38.2544035029936040
  8.5068564510921725 11.4885193285832035 38.2959947407682364
 -0.1570973541457329 14.2996688415182014 38.1988122961583727
  2.8533749716829129 14.2325149451324879 38.3517738811337878
  5.7177699837516505 14.2643028129494578 38.0437494806575174
  8.5545739529020732 14.3161629696605637 38.2973060310571753
